 vasp.5.2.12 26May11 complex
 executed on             LinuxIFC date 2012.05.25  10:19:13

 INCAR:
 POTCAR:    PAW_PBE B 06Sep2000
 POTCAR:    PAW_PBE B 06Sep2000
   VRHFIN =B: s2p1

   TITEL  = PAW_PBE B 06Sep2000
   POMASS =   10.811; ZVAL   =    3.000    mass and valenz
   ENMAX  =  318.614; ENMIN  =  238.960 eV

 Optimization of the real space projectors (new method)

 maximal supplied QI-value         = 22.11
 optimisation between [QCUT,QGAM] = [  9.07, 18.13] = [ 23.01, 92.04] Ry
 Optimized for a Real-space Cutoff    1.46 Angstroem

   l    n(q)    QCUT    max X(q) W(low)/X(q) W(high)/X(q)  e(spline)
   0      8     9.065    53.033    0.38E-03    0.70E-03    0.20E-06
   0      8     9.065    34.740    0.38E-03    0.69E-03    0.20E-06
   1      7     9.065    30.949    0.34E-03    0.21E-03    0.23E-06
   1      7     9.065    19.518    0.31E-03    0.17E-03    0.22E-06
  PAW_PBE B 06Sep2000                   :

 POSCAR: XYZ.pcell: B105
  positions in direct lattice
 exchange correlation table for  LEXCH =        8
   RHO(1)=    0.500       N(1)  =     2000
   RHO(2)=  100.500       N(2)  =     4000

 ion  position               nearest neighbor table
   1  0.500  0.500  0.500-  17 1.70  20 1.70  18 1.70  19 1.70  16 1.70  21 1.70
   2  0.387  0.387  0.387-  11 1.73  10 1.73  12 1.73   5 1.73   6 1.73   4 1.73  17 1.84  16 1.84
                            18 1.84
   3  0.613  0.613  0.613-  14 1.73  13 1.73  15 1.73   8 1.73   9 1.73   7 1.73  20 1.84  19 1.84
                            21 1.84
   4  0.387  0.216  0.387-   2 1.73  10 1.76  24 1.79  23 1.79 104 1.83  96 1.83   5 1.87   6 1.87

   5  0.387  0.387  0.216-   2 1.73  11 1.76  22 1.79  24 1.79  94 1.83 103 1.83   6 1.87   4 1.87

[...]

  22  0.202  0.505  0.202-  34 1.77   6 1.79   5 1.79  94 1.82 105 1.82  28 1.83
  23  0.202  0.202  0.505-  35 1.77   6 1.79   4 1.79  95 1.82 104 1.82  29 1.83
  24  0.505  0.202  0.202-  36 1.77   4 1.79   5 1.79 103 1.82  96 1.82  30 1.83
  25  0.495  0.798  0.798-  37 1.77   9 1.79   8 1.79  97 1.82 102 1.82  31 1.83
  26  0.798  0.798  0.495-  38 1.77   9 1.79   7 1.79  98 1.82 101 1.82  32 1.83
  27  0.798  0.495  0.798-  39 1.77   7 1.79   8 1.79 100 1.82  99 1.82  33 1.83
  28  0.197  0.689  0.197-  46 1.57 105 1.74  94 1.74  93 1.82  82 1.82  22 1.83
  29  0.197  0.197  0.689-  47 1.57  95 1.74 104 1.74  83 1.82  92 1.82  23 1.83
  30  0.689  0.197  0.197-  48 1.57  96 1.74 103 1.74  84 1.82  91 1.82  24 1.83
  31  0.311  0.803  0.803-  49 1.57 102 1.74  97 1.74  90 1.82  85 1.82  25 1.83
  32  0.803  0.803  0.311-  50 1.57  98 1.74 101 1.74  86 1.82  89 1.82  26 1.83
  33  0.803  0.311  0.803-  51 1.57  99 1.74 100 1.74  87 1.82  88 1.82  27 1.83
  34  0.102  0.495  0.102-  22 1.77  40 1.81  69 1.85  58 1.85  70 1.86  81 1.86
  35  0.102  0.102  0.495-  23 1.77  41 1.81  59 1.85  68 1.85  71 1.86  80 1.86
  36  0.495  0.102  0.102-  24 1.77  42 1.81  60 1.85  67 1.85  79 1.86  72 1.86
  37  0.505  0.898  0.898-  25 1.77  43 1.81  66 1.85  61 1.85  73 1.86  78 1.86
  38  0.898  0.898  0.505-  26 1.77  44 1.81  62 1.85  65 1.85  74 1.86  77 1.86
  39  0.898  0.505  0.898-  27 1.77  45 1.81  63 1.85  64 1.85  76 1.86  75 1.86
  40  0.993  0.666  0.993-  57 1.73  63 1.80  64 1.80  81 1.80  70 1.80  34 1.81
  41  0.993  0.993  0.666-  56 1.73  62 1.80  65 1.80  71 1.80  80 1.80  35 1.81
  42  0.666  0.993  0.993-  55 1.73  66 1.80  61 1.80  72 1.80  79 1.80  36 1.81
  43  0.334  0.007  0.007-  54 1.73  60 1.80  67 1.80  78 1.80  73 1.80  37 1.81
  44  0.007  0.007  0.334-  53 1.73  59 1.80  68 1.80  74 1.80  77 1.80  38 1.81
  45  0.007  0.334  0.007-  52 1.73  69 1.80  58 1.80  75 1.80  76 1.80  39 1.81
  46  0.103  0.838  0.103-  28 1.57  54 1.78  53 1.78  49 1.82  50 1.82  57 1.82
  47  0.103  0.103  0.838-  29 1.57  52 1.78  54 1.78  49 1.82  51 1.82  56 1.82
  48  0.838  0.103  0.103-  30 1.57  52 1.78  53 1.78  51 1.82  50 1.82  55 1.82
  49  0.162  0.897  0.897-  31 1.57  57 1.78  56 1.78  46 1.82  47 1.82  54 1.82
  50  0.897  0.897  0.162-  32 1.57  55 1.78  57 1.78  46 1.82  48 1.82  53 1.82
  51  0.897  0.162  0.897-  33 1.57  55 1.78  56 1.78  48 1.82  47 1.82  52 1.82
  52  0.001  0.169  0.001-  45 1.73  48 1.78  47 1.78  51 1.82  53 1.84  54 1.84
  53  0.001  0.001  0.169-  44 1.73  46 1.78  48 1.78  50 1.82  52 1.84  54 1.84
  54  0.169  0.001  0.001-  43 1.73  46 1.78  47 1.78  49 1.82  53 1.84  52 1.84
  55  0.831  0.999  0.999-  42 1.73  51 1.78  50 1.78  48 1.82  56 1.84  57 1.84
  56  0.999  0.999  0.831-  41 1.73  49 1.78  51 1.78  47 1.82  55 1.84  57 1.84
  57  0.999  0.831  0.999-  40 1.73  49 1.78  50 1.78  46 1.82  56 1.84  55 1.84
  58  0.178  0.349  0.004-  45 1.80  34 1.85  75 1.86  67 1.87  70 1.89  69 1.91
  59  0.004  0.178  0.349-  44 1.80  35 1.85  74 1.86  69 1.87  71 1.89  68 1.91
  60  0.349  0.004  0.178-  43 1.80  36 1.85  73 1.86  68 1.87  72 1.89  67 1.91
  61  0.651  0.822  0.996-  42 1.80  37 1.85  72 1.86  64 1.87  73 1.89  66 1.91
  62  0.822  0.996  0.651-  41 1.80  38 1.85  71 1.86  66 1.87  74 1.89  65 1.91
  63  0.996  0.651  0.822-  40 1.80  39 1.85  70 1.86  65 1.87  75 1.89  64 1.91
  64  0.822  0.651  0.996-  40 1.80  39 1.85  81 1.86  61 1.87  76 1.89  63 1.91
  65  0.996  0.822  0.651-  41 1.80  38 1.85  80 1.86  63 1.87  77 1.89  62 1.91
  66  0.651  0.996  0.822-  42 1.80  37 1.85  79 1.86  62 1.87  78 1.89  61 1.91
  67  0.349  0.178  0.004-  43 1.80  36 1.85  78 1.86  58 1.87  79 1.89  60 1.91
  68  0.178  0.004  0.349-  44 1.80  35 1.85  77 1.86  60 1.87  80 1.89  59 1.91
  69  0.004  0.349  0.178-  45 1.80  34 1.85  76 1.86  59 1.87  81 1.89  58 1.91
  70  0.166  0.554  0.891-  85 1.71  75 1.80  40 1.80  63 1.86  34 1.86  58 1.89
  71  0.891  0.166  0.554-  87 1.71  74 1.80  41 1.80  62 1.86  35 1.86  59 1.89
  72  0.554  0.891  0.166-  86 1.71  73 1.80  42 1.80  61 1.86  36 1.86  60 1.89
  73  0.446  0.834  0.109-  82 1.71  72 1.80  43 1.80  60 1.86  37 1.86  61 1.89
  74  0.834  0.109  0.446-  84 1.71  71 1.80  44 1.80  59 1.86  38 1.86  62 1.89
  75  0.109  0.446  0.834-  83 1.71  70 1.80  45 1.80  58 1.86  39 1.86  63 1.89
  76  0.834  0.446  0.109-  91 1.71  81 1.80  45 1.80  69 1.86  39 1.86  64 1.89
  77  0.109  0.834  0.446-  93 1.71  80 1.80  44 1.80  68 1.86  38 1.86  65 1.89
  78  0.446  0.109  0.834-  92 1.71  79 1.80  43 1.80  67 1.86  37 1.86  66 1.89
  79  0.554  0.166  0.891-  88 1.71  78 1.80  42 1.80  66 1.86  36 1.86  67 1.89
  80  0.166  0.891  0.554-  90 1.71  77 1.80  41 1.80  65 1.86  35 1.86  68 1.89
  81  0.891  0.554  0.166-  89 1.71  76 1.80  40 1.80  64 1.86  34 1.86  69 1.89
[...]
  91  0.681  0.377  0.202-  76 1.71  18 1.77  11 1.78  30 1.82 103 1.85  84 1.92
  92  0.377  0.202  0.681-  78 1.71  17 1.77  10 1.78  29 1.82 104 1.85  83 1.92
  93  0.202  0.681  0.377-  77 1.71  16 1.77  12 1.78  28 1.82 105 1.85  82 1.92
  94  0.361  0.583  0.094-  97 1.66  28 1.74  22 1.82   5 1.83  82 1.85  11 1.88
  95  0.094  0.361  0.583-  99 1.66  29 1.74  23 1.82   6 1.83  83 1.85  12 1.88
  96  0.583  0.094  0.361-  98 1.66  30 1.74  24 1.82   4 1.83  84 1.85  10 1.88
  97  0.417  0.639  0.906-  94 1.66  31 1.74  25 1.82   8 1.83  85 1.85  14 1.88
  98  0.639  0.906  0.417-  96 1.66  32 1.74  26 1.82   9 1.83  86 1.85  15 1.88
  99  0.906  0.417  0.639-  95 1.66  33 1.74  27 1.82   7 1.83  87 1.85  13 1.88
 100  0.639  0.417  0.906- 103 1.66  33 1.74  27 1.82   8 1.83  88 1.85  14 1.88
 101  0.906  0.639  0.417- 105 1.66  32 1.74  26 1.82   7 1.83  89 1.85  13 1.88
 102  0.417  0.906  0.639- 104 1.66  31 1.74  25 1.82   9 1.83  90 1.85  15 1.88
 103  0.583  0.361  0.094- 100 1.66  30 1.74  24 1.82   5 1.83  91 1.85  11 1.88
 104  0.361  0.094  0.583- 102 1.66  29 1.74  23 1.82   4 1.83  92 1.85  10 1.88
 105  0.094  0.583  0.361- 101 1.66  28 1.74  22 1.82   6 1.83  93 1.85  12 1.88

  LATTYP: Found a trigonal (rhomboedric) cell.
 ALAT       =    10.1712934826
 COS(alpha) =     0.4194511871

  Lattice vectors:

 A1 = (   5.4800000000,   3.1638794750,   7.9633333333)
 A2 = (  -5.4800000000,   3.1638794750,   7.9633333333)
 A3 = (   0.0000000000,  -6.3277589500,   7.9633333333)
 Subroutine PRICEL returns:
 Original cell was already a primitive cell.

Analysis of symmetry for initial positions (statically):

 Routine SETGRP: Setting up the symmetry group for a
 trigonal (rhombohedral) supercell.

 Subroutine GETGRP returns: Found 12 space group operations
 (whereof 12 operations were pure point group operations)
 out of a pool of 12 trial point group operations.

The static configuration has the point symmetry D_3d.

Analysis of symmetry for dynamics (positions and initial velocities):

 Subroutine DYNSYM returns: Found 12 space group operations
 (whereof 12 operations were pure point group operations)
 out of a pool of 12 trial space group operations
 (whereof 12 operations were pure point group operations)
 and found also     1 'primitive' translations

The dynamic configuration has the point symmetry D_3d.

 KPOINTS: Automatic mesh

Automatic generation of k-mesh.

 Subroutine IBZKPT returns following result:

 Found      6 irreducible k-points:

 Following reciprocal coordinates:
            Coordinates               Weight
  0.000000  0.000000  0.000000      1.000000
  0.333333  0.000000  0.000000      6.000000
  0.333333  0.333333  0.000000      6.000000
 -0.333333  0.333333  0.000000      6.000000
  0.333333  0.333333  0.333333      2.000000
 -0.333333  0.333333  0.333333      6.000000

 Following cartesian coordinates:
            Coordinates               Weight
  0.000000  0.000000  0.000000      1.000000
  0.030414  0.017559  0.013953      6.000000
  0.000000  0.035119  0.027906      6.000000
 -0.060827  0.000000  0.000000      6.000000
  0.000000  0.000000  0.041859      2.000000
 -0.060827 -0.035119  0.013953      6.000000

 I would recommend the setting:
   dimension x,y,z NGX =    44 NGY =   44 NGZ =   44
 SYSTEM =  B105
 POSCAR =  XYZ.pcell: B105

 Startparameter for this run:
   NWRITE =      2    write-flag & timer
   PREC   = normal    normal or accurate (medium, high low for compatibility)
   ISTART =      0    job   : 0-new  1-cont  2-samecut
   ICHARG =      2    charge: 1-file 2-atom 10-const
   ISPIN  =      1    spin polarized calculation?
   LNONCOLLINEAR =      F non collinear calculations
   LSORBIT =      F    spin-orbit coupling
   INIWAV =      1    electr: 0-lowe 1-rand  2-diag
   LASPH  =      F    aspherical Exc in radial PAW
   METAGGA=      F    non-selfconsistent MetaGGA calc.

 Electronic Relaxation 1
   ENCUT  =  318.6 eV  23.42 Ry    4.84 a.u.  14.80 14.80 14.80*2*pi/ulx,y,z
   ENINI  =  318.6     initial cutoff
   ENAUG  =  535.5 eV  augmentation charge cutoff
   NELM   =     40;   NELMIN=  2; NELMDL=  0     # of ELM steps
   EDIFF  = 0.1E-05   stopping-criterion for ELM
   LREAL  =      T    real-space projection
   LCOMPAT=      F    compatible to vasp.4.4
   GGA_COMPAT  = T    GGA compatible to vasp.4.4-vasp.4.6
   LMAXPAW     = -100 max onsite density
   LMAXMIX     =    2 max onsite mixed and CHGCAR
   VOSKOWN=      0    Vosko Wilk Nusair interpolation
   ROPT   =   -0.00050
 Ionic relaxation
   EDIFFG = 0.1E-04   stopping-criterion for IOM
[...]
   -.992E-12 0.173E-06 0.528E+01   -.150E-13 0.196E-08 -.401E+01   -.118E-20 -.347E-17 -.126E+01   0.152E-12 -.296E-12 0.443E-03
   -.273E+02 0.157E+02 0.858E+02   0.294E+02 -.170E+02 -.888E+02   -.213E+01 0.123E+01 0.307E+01   -.104E-03 0.599E-04 -.663E-03
   -.929E-12 -.315E+02 0.858E+02   0.794E-14 0.339E+02 -.888E+02   0.905E-20 -.246E+01 0.307E+01   -.200E-12 -.120E-03 -.663E-03
   0.273E+02 0.157E+02 0.858E+02   -.294E+02 -.170E+02 -.888E+02   0.213E+01 0.123E+01 0.307E+01   0.104E-03 0.599E-04 -.663E-03
   -.273E+02 -.157E+02 -.858E+02   0.294E+02 0.170E+02 0.888E+02   -.213E+01 -.123E+01 -.307E+01   -.104E-03 -.599E-04 0.663E-03
   0.805E-12 0.315E+02 -.858E+02   0.115E-13 -.339E+02 0.888E+02   -.905E-20 0.246E+01 -.307E+01   0.358E-14 0.120E-03 0.663E-03
   0.273E+02 -.157E+02 -.858E+02   -.294E+02 0.170E+02 0.888E+02   0.213E+01 -.123E+01 -.307E+01   0.104E-03 -.599E-04 0.663E-03
   -.681E+02 0.393E+02 -.424E+02   0.708E+02 -.409E+02 0.434E+02   -.270E+01 0.156E+01 -.974E+00   0.341E-03 -.197E-03 -.884E-05
   -.236E-11 -.787E+02 -.424E+02   -.256E-13 0.818E+02 0.434E+02   0.661E-20 -.311E+01 -.974E+00   -.205E-12 0.394E-03 -.884E-05
   0.681E+02 0.393E+02 -.424E+02   -.708E+02 -.409E+02 0.434E+02   0.270E+01 0.156E+01 -.974E+00   -.341E-03 -.197E-03 -.884E-05
   -.681E+02 -.393E+02 0.424E+02   0.708E+02 0.409E+02 -.434E+02   -.270E+01 -.156E+01 0.974E+00   0.341E-03 0.197E-03 0.884E-05
   0.196E-11 0.787E+02 0.424E+02   -.255E-13 -.818E+02 -.434E+02   -.661E-20 0.311E+01 0.974E+00   0.937E-13 -.394E-03 0.884E-05
   0.681E+02 -.393E+02 0.424E+02   -.708E+02 0.409E+02 -.434E+02   0.270E+01 -.156E+01 0.974E+00   -.341E-03 0.197E-03 0.884E-05
   0.393E+02 -.227E+02 -.780E+02   -.440E+02 0.254E+02 0.800E+02   0.464E+01 -.268E+01 -.205E+01   -.389E-03 0.224E-03 -.646E-04
   -.162E-11 0.454E+02 -.780E+02   -.402E-14 -.508E+02 0.800E+02   -.151E-19 0.536E+01 -.205E+01   -.862E-13 -.449E-03 -.646E-04
   -.393E+02 -.227E+02 -.780E+02   0.440E+02 0.254E+02 0.800E+02   -.464E+01 -.268E+01 -.205E+01   0.389E-03 0.224E-03 -.646E-04
   0.393E+02 0.227E+02 0.780E+02   -.440E+02 -.254E+02 -.800E+02   0.464E+01 0.268E+01 0.205E+01   -.389E-03 -.224E-03 0.646E-04
   0.109E-11 -.454E+02 0.780E+02   0.173E-13 0.508E+02 -.800E+02   0.151E-19 -.536E+01 0.205E+01   0.150E-12 0.449E-03 0.646E-04
   -.393E+02 0.227E+02 0.780E+02   0.440E+02 -.254E+02 -.800E+02   -.464E+01 0.268E+01 0.205E+01   0.389E-03 -.224E-03 0.646E-04
   0.851E+01 -.491E+01 0.693E+02   -.108E+02 0.621E+01 -.756E+02   0.230E+01 -.133E+01 0.631E+01   -.278E-04 0.161E-04 -.725E-03
   -.129E-11 0.982E+01 0.693E+02   0.126E-13 -.124E+02 -.756E+02   -.265E-21 0.266E+01 0.631E+01   -.123E-12 -.321E-04 -.725E-03
   -.851E+01 -.491E+01 0.693E+02   0.108E+02 0.621E+01 -.756E+02   -.230E+01 -.133E+01 0.631E+01   0.278E-04 0.161E-04 -.725E-03
   0.851E+01 0.491E+01 -.693E+02   -.108E+02 -.621E+01 0.756E+02   0.230E+01 0.133E+01 -.631E+01   -.278E-04 -.161E-04 0.725E-03
   0.626E-12 -.982E+01 -.693E+02   0.132E-13 0.124E+02 0.756E+02   0.265E-21 -.266E+01 -.631E+01   0.164E-12 0.321E-04 0.725E-03
   -.851E+01 0.491E+01 -.693E+02   0.108E+02 -.621E+01 0.756E+02   -.230E+01 0.133E+01 -.631E+01   0.278E-04 -.161E-04 0.725E-03
   0.323E+02 -.186E+02 -.667E+00   -.372E+02 0.215E+02 -.255E+00   0.493E+01 -.285E+01 0.911E+00   -.714E-03 0.412E-03 -.437E-03
   -.156E-12 0.373E+02 -.667E+00   0.118E-13 -.430E+02 -.255E+00   -.132E-19 0.570E+01 0.911E+00   -.416E-13 -.824E-03 -.437E-03
   -.323E+02 -.186E+02 -.667E+00   0.372E+02 0.215E+02 -.255E+00   -.493E+01 -.285E+01 0.911E+00   0.714E-03 0.412E-03 -.437E-03
   0.323E+02 0.186E+02 0.667E+00   -.372E+02 -.215E+02 0.255E+00   0.493E+01 0.285E+01 -.911E+00   -.714E-03 -.412E-03 0.437E-03
   -.273E-12 -.373E+02 0.667E+00   0.594E-14 0.430E+02 0.255E+00   0.132E-19 -.570E+01 -.911E+00   0.136E-12 0.824E-03 0.437E-03
   -.323E+02 0.186E+02 0.667E+00   0.372E+02 -.215E+02 0.255E+00   -.493E+01 0.285E+01 -.911E+00   0.714E-03 -.412E-03 0.437E-03
   -.306E+02 0.177E+02 -.190E+02   0.319E+02 -.184E+02 0.223E+02   -.129E+01 0.745E+00 -.340E+01   -.115E-05 0.663E-06 0.257E-03
   -.307E-12 -.353E+02 -.190E+02   0.702E-14 0.368E+02 0.223E+02   0.361E-21 -.149E+01 -.340E+01   -.104E-12 -.133E-05 0.257E-03
   0.306E+02 0.177E+02 -.190E+02   -.319E+02 -.184E+02 0.223E+02   0.129E+01 0.745E+00 -.340E+01   0.115E-05 0.663E-06 0.257E-03
   -.306E+02 -.177E+02 0.190E+02   0.319E+02 0.184E+02 -.223E+02   -.129E+01 -.745E+00 0.340E+01   -.115E-05 -.663E-06 -.257E-03
   0.165E-12 0.353E+02 0.190E+02   -.550E-14 -.368E+02 -.223E+02   -.361E-21 0.149E+01 0.340E+01   0.128E-12 0.133E-05 -.257E-03
   0.306E+02 -.177E+02 0.190E+02   -.319E+02 0.184E+02 -.223E+02   0.129E+01 -.745E+00 0.340E+01   0.115E-05 -.663E-06 -.257E-03
   0.249E+02 -.144E+02 -.135E+02   -.265E+02 0.153E+02 0.151E+02   0.157E+01 -.907E+00 -.163E+01   -.165E-03 0.952E-04 -.699E-04
   -.173E-11 0.288E+02 -.135E+02   0.613E-14 -.306E+02 0.151E+02   -.174E-17 0.181E+01 -.163E+01   -.101E-13 -.190E-03 -.699E-04
   -.249E+02 -.144E+02 -.135E+02   0.265E+02 0.153E+02 0.151E+02   -.157E+01 -.907E+00 -.163E+01   0.165E-03 0.952E-04 -.699E-04
   0.249E+02 0.144E+02 0.135E+02   -.265E+02 -.153E+02 -.151E+02   0.157E+01 0.907E+00 0.163E+01   -.165E-03 -.952E-04 0.699E-04
   0.794E-12 -.288E+02 0.135E+02   -.216E-14 0.306E+02 -.151E+02   0.643E-20 -.181E+01 0.163E+01   0.112E-12 0.190E-03 0.699E-04
   -.249E+02 0.144E+02 0.135E+02   0.265E+02 -.153E+02 -.151E+02   -.157E+01 0.907E+00 0.163E+01   0.165E-03 -.952E-04 0.699E-04
   -.384E+02 0.222E+02 -.118E+02   0.420E+02 -.243E+02 0.127E+02   -.356E+01 0.206E+01 -.844E+00   0.612E-03 -.353E-03 0.252E-03
   -.204E-12 -.444E+02 -.118E+02   0.356E-14 0.485E+02 0.127E+02   0.139E-16 -.411E+01 -.844E+00   -.198E-13 0.706E-03 0.252E-03
   0.384E+02 0.222E+02 -.118E+02   -.420E+02 -.243E+02 0.127E+02   0.356E+01 0.206E+01 -.844E+00   -.612E-03 -.353E-03 0.252E-03
   -.384E+02 -.222E+02 0.118E+02   0.420E+02 0.243E+02 -.127E+02   -.356E+01 -.206E+01 0.844E+00   0.612E-03 0.353E-03 -.252E-03
   0.426E-12 0.444E+02 0.118E+02   -.117E-14 -.485E+02 -.127E+02   -.931E-20 0.411E+01 0.844E+00   0.358E-13 -.706E-03 -.252E-03
   0.384E+02 -.222E+02 0.118E+02   -.420E+02 0.243E+02 -.127E+02   0.356E+01 -.206E+01 0.844E+00   -.612E-03 0.353E-03 -.252E-03
   0.293E+02 -.169E+02 -.629E+02   -.307E+02 0.177E+02 0.651E+02   0.145E+01 -.835E+00 -.224E+01   0.694E-04 -.401E-04 0.687E-03
   -.510E-13 0.338E+02 -.629E+02   0.107E-13 -.354E+02 0.651E+02   -.700E-20 0.167E+01 -.224E+01   0.729E-13 0.802E-04 0.687E-03
   -.293E+02 -.169E+02 -.629E+02   0.307E+02 0.177E+02 0.651E+02   -.145E+01 -.835E+00 -.224E+01   -.694E-04 -.401E-04 0.687E-03
   0.293E+02 0.169E+02 0.629E+02   -.307E+02 -.177E+02 -.651E+02   0.145E+01 0.835E+00 0.224E+01   0.694E-04 0.401E-04 -.687E-03
   0.130E-12 -.338E+02 0.629E+02   -.121E-14 0.354E+02 -.651E+02   0.700E-20 -.167E+01 0.224E+01   0.242E-13 -.802E-04 -.687E-03
   -.293E+02 0.169E+02 0.629E+02   0.307E+02 -.177E+02 -.651E+02   -.145E+01 0.835E+00 0.224E+01   -.694E-04 0.401E-04 -.687E-03
   -.603E+02 0.331E+00 -.209E+02   0.634E+02 -.358E+00 0.212E+02   -.306E+01 0.217E-01 -.391E+00   0.453E-03 -.370E-03 -.151E-03
   0.299E+02 -.524E+02 -.209E+02   -.314E+02 0.551E+02 0.212E+02   0.151E+01 -.266E+01 -.391E+00   0.939E-04 0.577E-03 -.151E-03
   0.304E+02 0.521E+02 -.209E+02   -.320E+02 -.547E+02 0.212E+02   0.155E+01 0.264E+01 -.391E+00   -.547E-03 -.207E-03 -.151E-03
[...]
   -.322E+02 0.347E+02 -.494E+02   0.357E+02 -.393E+02 0.529E+02   -.353E+01 0.460E+01 -.358E+01   0.380E-03 -.167E-03 0.187E-03
   0.462E+02 0.105E+02 -.494E+02   -.519E+02 -.113E+02 0.529E+02   0.575E+01 0.759E+00 -.358E+01   -.335E-03 -.246E-03 0.187E-03
   -.118E+01 -.456E+02 0.153E+02   -.115E+01 0.507E+02 -.175E+02   0.234E+01 -.508E+01 0.213E+01   0.121E-03 0.565E-03 -.311E-03
   0.401E+02 0.218E+02 0.153E+02   -.433E+02 -.263E+02 -.175E+02   0.323E+01 0.457E+01 0.213E+01   -.550E-03 -.178E-03 -.311E-03
   -.389E+02 0.238E+02 0.153E+02   0.444E+02 -.243E+02 -.175E+02   -.557E+01 0.512E+00 0.213E+01   0.429E-03 -.387E-03 -.311E-03
   -.118E+01 0.456E+02 -.153E+02   -.115E+01 -.507E+02 0.175E+02   0.234E+01 0.508E+01 -.213E+01   0.121E-03 -.565E-03 0.311E-03
   0.401E+02 -.218E+02 -.153E+02   -.433E+02 0.263E+02 0.175E+02   0.323E+01 -.457E+01 -.213E+01   -.550E-03 0.178E-03 0.311E-03
   -.389E+02 -.238E+02 -.153E+02   0.444E+02 0.243E+02 0.175E+02   -.557E+01 -.512E+00 -.213E+01   0.429E-03 0.387E-03 0.311E-03
   0.118E+01 0.456E+02 -.153E+02   0.115E+01 -.507E+02 0.175E+02   -.234E+01 0.508E+01 -.213E+01   -.121E-03 -.565E-03 0.311E-03
   -.401E+02 -.218E+02 -.153E+02   0.433E+02 0.263E+02 0.175E+02   -.323E+01 -.457E+01 -.213E+01   0.550E-03 0.178E-03 0.311E-03
   0.389E+02 -.238E+02 -.153E+02   -.444E+02 0.243E+02 0.175E+02   0.557E+01 -.512E+00 -.213E+01   -.429E-03 0.387E-03 0.311E-03
   0.118E+01 -.456E+02 0.153E+02   0.115E+01 0.507E+02 -.175E+02   -.234E+01 -.508E+01 0.213E+01   -.121E-03 0.565E-03 -.311E-03
   -.401E+02 0.218E+02 0.153E+02   0.433E+02 -.263E+02 -.175E+02   -.323E+01 0.457E+01 0.213E+01   0.550E-03 -.178E-03 -.311E-03
   0.389E+02 0.238E+02 0.153E+02   -.444E+02 -.243E+02 -.175E+02   0.557E+01 0.512E+00 0.213E+01   -.429E-03 -.387E-03 -.311E-03
   0.321E-11 -.208E-12 0.121E-10   -.213E-13 0.373E-12 -.384E-12   0.178E-14 -.289E-14 -.888E-15   -.192E-12 -.928E-14 -.157E-11

 POSITION                                       TOTAL-FORCE (eV/Angst)
      0.00000      0.00000     11.83226         0.000000      0.000000      0.000000
      0.00000      0.00000      9.11056         0.000000      0.000000     -0.005300
      0.00000      0.00000     14.55397         0.000000      0.000000      0.005300
      0.91545     -0.52853      7.70483        -0.009633      0.005562     -0.025198
      0.00000      1.05707      7.70483         0.000000     -0.011123     -0.025198
     -0.91545     -0.52853      7.70483         0.009633      0.005562     -0.025198
      0.91545      0.52853     15.95969        -0.009633     -0.005562      0.025198
      0.00000     -1.05707     15.95969         0.000000      0.011123      0.025198
     -0.91545      0.52853     15.95969         0.009633     -0.005562      0.025198
      1.46275     -0.84452      9.47236        -0.001890      0.001091     -0.017298
      0.00000      1.68904      9.47236         0.000000     -0.002182     -0.017298
     -1.46275     -0.84452      9.47236         0.001890      0.001091     -0.017298
      1.46275      0.84452     14.19217        -0.001890     -0.001091      0.017298
      0.00000     -1.68904     14.19217         0.000000      0.002182      0.017298
     -1.46275      0.84452     14.19217         0.001890     -0.001091      0.017298
     -1.00218      0.57861     10.55341         0.000675     -0.000389      0.005951
      0.00000     -1.15722     10.55341         0.000000      0.000779      0.005951
      1.00218      0.57861     10.55341        -0.000675     -0.000389      0.005951
     -1.00218     -0.57861     13.11112         0.000675      0.000389     -0.005951
      0.00000      1.15722     13.11112         0.000000     -0.000779     -0.005951
      1.00218     -0.57861     13.11112        -0.000675      0.000389     -0.005951
     -1.67554      0.96738      7.13822         0.055226     -0.031885      0.010228
      0.00000     -1.93475      7.13822         0.000000      0.063769      0.010228
      1.67554      0.96738      7.13822        -0.055226     -0.031885      0.010228
     -1.67554     -0.96738     16.52631         0.055226      0.031885     -0.010228
      0.00000      1.93475     16.52631         0.000000     -0.063769     -0.010228
      1.67554     -0.96738     16.52631        -0.055226      0.031885     -0.010228
     -2.65517      1.53296      8.56146        -0.014684      0.008478     -0.010927
      0.00000     -3.06592      8.56146         0.000000     -0.016956     -0.010927
      2.65517      1.53296      8.56146         0.014684      0.008478     -0.010927
     -2.65517     -1.53296     15.10307        -0.014684     -0.008478      0.010927
      0.00000      3.06592     15.10307         0.000000      0.016956      0.010927
      2.65517     -1.53296     15.10307         0.014684     -0.008478      0.010927
     -2.10912      1.21770      5.51689         0.006571     -0.003794     -0.075210
      0.00000     -2.43541      5.51689         0.000000      0.007588     -0.075210
      2.10912      1.21770      5.51689        -0.006571     -0.003794     -0.075210
     -2.10912     -1.21770     18.14764         0.006571      0.003794      0.075210
      0.00000      2.43541     18.14764         0.000000     -0.007588      0.075210
      2.10912     -1.21770     18.14764        -0.006571      0.003794      0.075210
      1.79814     -1.03816     20.93230         0.046783     -0.027010      0.009438
      0.00000      2.07631     20.93230         0.000000      0.054020      0.009438
     -1.79814     -1.03816     20.93230        -0.046783     -0.027010      0.009438
      1.79814      1.03816      2.73223         0.046783      0.027010     -0.009438
      0.00000     -2.07631      2.73223         0.000000     -0.054020     -0.009438
     -1.79814      1.03816      2.73223        -0.046783      0.027010     -0.009438
     -4.03736      2.33097      8.20681         0.036494     -0.021070      0.022865
      0.00000     -4.66195      8.20681         0.000000      0.042139      0.022865
      4.03736      2.33097      8.20681        -0.036494     -0.021070      0.022865
     -4.03736     -2.33097     15.45772         0.036494      0.021070     -0.022865
      0.00000      4.66195     15.45772         0.000000     -0.042139     -0.022865
      4.03736     -2.33097     15.45772        -0.036494      0.021070     -0.022865
     -0.87544      0.50544      1.33955         0.035275     -0.020366     -0.021236
      0.00000     -1.01087      1.33955         0.000000      0.040733     -0.021236
      0.87544      0.50544      1.33955        -0.035275     -0.020366     -0.021236
     -0.87544     -0.50544     22.32498         0.035275      0.020366      0.021236
      0.00000      1.01087     22.32498         0.000000     -0.040733      0.021236
      0.87544     -0.50544     22.32498        -0.035275      0.020366      0.021236
     -0.94088      1.62198      4.17489        -0.000834     -0.005258     -0.048298
     -0.93423     -1.62581      4.17489         0.004971      0.001907     -0.048298
      1.87511      0.00384      4.17489        -0.004137      0.003351     -0.048298
[...]
      1.68225      2.07288      9.94536        -0.016433     -0.004192     -0.022022
      0.95404     -2.49331      9.94536         0.004586      0.016327     -0.022022
     -2.63629      0.42043      9.94536         0.011847     -0.012135     -0.022022
     -1.17870      2.36521      8.20862         0.006349     -0.013006     -0.037834
     -1.45898     -2.20339      8.20862         0.008089      0.012001     -0.037834
      2.63768     -0.16182      8.20862        -0.014438      0.001005     -0.037834
     -1.17870     -2.36521     15.45591         0.006349      0.013006      0.037834
     -1.45898      2.20339     15.45591         0.008089     -0.012001      0.037834
      2.63768      0.16182     15.45591        -0.014438     -0.001005      0.037834
      1.17870     -2.36521     15.45591        -0.006349      0.013006      0.037834
      1.45898      2.20339     15.45591        -0.008089     -0.012001      0.037834
     -2.63768      0.16182     15.45591         0.014438     -0.001005      0.037834
      1.17870      2.36521      8.20862        -0.006349     -0.013006     -0.037834
      1.45898     -2.20339      8.20862        -0.008089      0.012001     -0.037834
     -2.63768     -0.16182      8.20862         0.014438      0.001005     -0.037834
    total drift:                                0.000000      0.000000      0.000000

  FREE ENERGIE OF THE ION-ELECTRON SYSTEM (eV)
  free  energy   TOTEN  =      -700.458239 eV

  energy  without entropy=     -700.434862  energy(sigma->0) =     -700.450446

 d Force = 0.1074151E-01[ 0.566E-02, 0.158E-01]  d Energy = 0.1138343E-01-0.642E-03
 d Force = 0.1781507E+01[ 0.176E+01, 0.180E+01]  d Ewald  = 0.4567071E+01-0.279E+01

 Conjugate gradient step on ions:
 trial-energy change:   -0.011383  1 .order   -0.011355   -0.016912   -0.005799
  (g-gl).g = 0.128E-01      g.g   = 0.128E-01  gl.gl    = 0.290E-01
 g(Force)  = 0.116E-01   g(Stress)= 0.120E-02 ortho     =-0.657E-04
 gamma     =   0.44110
 trial     =   1.32094
 opt step  =   2.01013  (harmonic =   2.01013) maximal distance =0.00577347
 next E    =  -700.459723   (d E  =  -0.01287)