 vasp.5.2.12 26May11 complex
 executed on             LinuxIFC date 2012.05.25  11:41:16

 INCAR:
 POTCAR:    PAW_PBE B 06Sep2000
 POTCAR:    PAW_PBE B 06Sep2000
   VRHFIN =B: s2p1

   TITEL  = PAW_PBE B 06Sep2000
   POMASS =   10.811; ZVAL   =    3.000    mass and valenz
   ENMAX  =  318.614; ENMIN  =  238.960 eV

 Optimization of the real space projectors (new method)

 maximal supplied QI-value         = 22.11
 optimisation between [QCUT,QGAM] = [  9.07, 18.13] = [ 23.01, 92.04] Ry
 Optimized for a Real-space Cutoff    1.46 Angstroem

   l    n(q)    QCUT    max X(q) W(low)/X(q) W(high)/X(q)  e(spline)
   0      8     9.065    53.033    0.38E-03    0.70E-03    0.20E-06
   0      8     9.065    34.740    0.38E-03    0.69E-03    0.20E-06
   1      7     9.065    30.949    0.34E-03    0.21E-03    0.23E-06
   1      7     9.065    19.518    0.31E-03    0.17E-03    0.22E-06
  PAW_PBE B 06Sep2000                   :

 POSCAR: XYZ: B12
  positions in direct lattice
  velocities in cartesian coordinates
 exchange correlation table for  LEXCH =        8
   RHO(1)=    0.500       N(1)  =     2000
   RHO(2)=  100.500       N(2)  =     4000

 ion  position               nearest neighbor table
   1  0.010  0.654  0.010-   6 1.67   2 1.74   3 1.74   7 1.79  10 1.80  11 1.80
   2  0.010  0.010  0.654-   5 1.67   3 1.74   1 1.74   8 1.79  10 1.80  12 1.80
   3  0.654  0.010  0.010-   4 1.67   2 1.74   1 1.74   9 1.79  12 1.80  11 1.80
   4  0.346  0.990  0.990-   3 1.67   5 1.74   6 1.74  10 1.79   7 1.80   8 1.80
   5  0.990  0.990  0.346-   2 1.67   4 1.74   6 1.74  11 1.79   9 1.80   7 1.80
   6  0.990  0.346  0.990-   1 1.67   5 1.74   4 1.74  12 1.79   9 1.80   8 1.80
   7  0.221  0.630  0.221-  10 1.77  11 1.77   1 1.79   4 1.80   5 1.80   8 2.00   9 2.00
   8  0.221  0.221  0.630-  10 1.77  12 1.77   2 1.79   4 1.80   6 1.80   7 2.00   9 2.00
   9  0.630  0.221  0.221-  12 1.77  11 1.77   3 1.79   6 1.80   5 1.80   8 2.00   7 2.00
  10  0.370  0.779  0.779-   7 1.77   8 1.77   4 1.79   1 1.80   2 1.80  11 2.00  12 2.00
  11  0.779  0.779  0.370-   7 1.77   9 1.77   5 1.79   3 1.80   1 1.80  10 2.00  12 2.00
  12  0.779  0.370  0.779-   9 1.77   8 1.77   6 1.79   3 1.80   2 1.80  11 2.00  10 2.00

  LATTYP: Found a trigonal (rhomboedric) cell.
 ALAT       =     5.0343089373
 COS(alpha) =     0.5295572246

  Lattice vectors:

 A1 = (   2.4416210867,   1.4096705917,   4.1708010943)
 A2 = (  -2.4416210867,   1.4096705917,   4.1708010943)
 A3 = (   0.0000000000,  -2.8193411833,   4.1708010943)
 Subroutine PRICEL returns:
 Original cell was already a primitive cell.

Analysis of symmetry for initial positions (statically):

 Routine SETGRP: Setting up the symmetry group for a
 trigonal (rhombohedral) supercell.

 Subroutine GETGRP returns: Found 12 space group operations
 (whereof 12 operations were pure point group operations)
 out of a pool of 12 trial point group operations.

The static configuration has the point symmetry D_3d.

Analysis of symmetry for dynamics (positions and initial velocities):

 Subroutine DYNSYM returns: Found 12 space group operations
 (whereof 12 operations were pure point group operations)
 out of a pool of 12 trial space group operations
 (whereof 12 operations were pure point group operations)
 and found also     1 'primitive' translations

The dynamic configuration has the point symmetry D_3d.

 KPOINTS: Automatic mesh

Automatic generation of k-mesh.

 Subroutine IBZKPT returns following result:

 Found    116 irreducible k-points:

 Following reciprocal coordinates:
            Coordinates               Weight
  0.000000  0.000000  0.000000      1.000000
  0.100000  0.000000  0.000000      6.000000
  0.200000  0.000000  0.000000      6.000000
  0.300000  0.000000  0.000000      6.000000
  0.400000  0.000000  0.000000      6.000000
  0.500000  0.000000  0.000000      3.000000
  0.100000  0.100000  0.000000      6.000000
  0.200000  0.100000  0.000000     12.000000
  0.300000  0.100000  0.000000     12.000000
  0.400000  0.100000  0.000000     12.000000
  0.500000  0.100000  0.000000     12.000000
 -0.400000  0.100000  0.000000     12.000000
 -0.300000  0.100000  0.000000     12.000000
 -0.200000  0.100000  0.000000     12.000000
 -0.100000  0.100000  0.000000      6.000000
  0.200000  0.200000  0.000000      6.000000
  0.300000  0.200000  0.000000     12.000000
  0.400000  0.200000  0.000000     12.000000
  0.500000  0.200000  0.000000     12.000000
 -0.400000  0.200000  0.000000     12.000000
 -0.300000  0.200000  0.000000     12.000000
 -0.200000  0.200000  0.000000      6.000000
  0.300000  0.300000  0.000000      6.000000
  0.400000  0.300000  0.000000     12.000000
  0.500000  0.300000  0.000000     12.000000
 -0.400000  0.300000  0.000000     12.000000
 -0.300000  0.300000  0.000000      6.000000
  0.400000  0.400000  0.000000      6.000000
  0.500000  0.400000  0.000000     12.000000
 -0.400000  0.400000  0.000000      6.000000
  0.500000  0.500000  0.000000      3.000000
  0.100000  0.100000  0.100000      2.000000
  0.200000  0.100000  0.100000      6.000000
  0.300000  0.100000  0.100000      6.000000
  0.400000  0.100000  0.100000      6.000000
  0.500000  0.100000  0.100000      6.000000
 -0.400000  0.100000  0.100000      6.000000
 -0.300000  0.100000  0.100000      6.000000
 -0.200000  0.100000  0.100000      6.000000
 -0.100000  0.100000  0.100000      6.000000
  0.200000  0.200000  0.100000      6.000000
  0.300000  0.200000  0.100000     12.000000
  0.400000  0.200000  0.100000     12.000000
  0.500000  0.200000  0.100000     12.000000
 -0.400000  0.200000  0.100000     12.000000
 -0.300000  0.200000  0.100000     12.000000
 -0.200000  0.200000  0.100000     12.000000
 -0.100000  0.200000  0.100000     12.000000
  0.300000  0.300000  0.100000      6.000000
  0.400000  0.300000  0.100000     12.000000
  0.500000  0.300000  0.100000     12.000000
 -0.400000  0.300000  0.100000     12.000000
 -0.300000  0.300000  0.100000     12.000000
 -0.200000  0.300000  0.100000     12.000000
 -0.100000  0.300000  0.100000     12.000000
  0.400000  0.400000  0.100000      6.000000
  0.500000  0.400000  0.100000     12.000000
 -0.400000  0.400000  0.100000     12.000000
 -0.300000  0.400000  0.100000     12.000000
 -0.200000  0.400000  0.100000     12.000000
[...]
 -0.300000  0.300000  0.300000      6.000000
  0.400000  0.400000  0.300000      6.000000
  0.500000  0.400000  0.300000     12.000000
 -0.400000  0.400000  0.300000     12.000000
 -0.300000  0.400000  0.300000     12.000000
  0.500000  0.500000  0.300000      6.000000
 -0.400000  0.500000  0.300000     12.000000
 -0.300000  0.500000  0.300000      6.000000
 -0.400000 -0.400000  0.300000      6.000000
  0.400000  0.400000  0.400000      2.000000
  0.500000  0.400000  0.400000      6.000000
 -0.400000  0.400000  0.400000      6.000000
  0.500000  0.500000  0.400000      6.000000
 -0.400000  0.500000  0.400000      6.000000
  0.500000  0.500000  0.500000      1.000000

 Following cartesian coordinates:
            Coordinates               Weight
  0.000000  0.000000  0.000000      1.000000
  0.020478  0.011823  0.007992      6.000000
  0.040956  0.023646  0.015984      6.000000
  0.061435  0.035469  0.023976      6.000000
  0.081913  0.047292  0.031968      6.000000
  0.102391  0.059115  0.039960      3.000000
  0.000000  0.023646  0.015984      6.000000
  0.020478  0.035469  0.023976     12.000000
  0.040956  0.047292  0.031968     12.000000
  0.061435  0.059115  0.039960     12.000000
  0.081913  0.070939  0.047952     12.000000
 -0.102391 -0.035469 -0.023976     12.000000
 -0.081913 -0.023646 -0.015984     12.000000
 -0.061435 -0.011823 -0.007992     12.000000
 -0.040956  0.000000  0.000000      6.000000
  0.000000  0.047292  0.031968      6.000000
  0.020478  0.059115  0.039960     12.000000
  0.040956  0.070939  0.047952     12.000000
  0.061435  0.082762  0.055944     12.000000
 -0.122869 -0.023646 -0.015984     12.000000
 -0.102391 -0.011823 -0.007992     12.000000
 -0.081913  0.000000  0.000000      6.000000
  0.000000  0.070939  0.047952      6.000000
  0.020478  0.082762  0.055944     12.000000
  0.040956  0.094585  0.063937     12.000000
 -0.143347 -0.011823 -0.007992     12.000000
 -0.122869  0.000000  0.000000      6.000000
  0.000000  0.094585  0.063937      6.000000
  0.020478  0.106408  0.071929     12.000000
 -0.163826  0.000000  0.000000      6.000000
  0.000000  0.118231  0.079921      3.000000
  0.000000  0.000000  0.023976      2.000000
  0.020478  0.011823  0.031968      6.000000
  0.040956  0.023646  0.039960      6.000000
  0.061435  0.035469  0.047952      6.000000
  0.081913  0.047292  0.055944      6.000000
 -0.102391 -0.059115 -0.015984      6.000000
 -0.081913 -0.047292 -0.007992      6.000000
 -0.061435 -0.035469  0.000000      6.000000
 -0.040956 -0.023646  0.007992      6.000000
  0.000000  0.023646  0.039960      6.000000
  0.020478  0.035469  0.047952     12.000000
  0.040956  0.047292  0.055944     12.000000
  0.061435  0.059115  0.063937     12.000000
 -0.122869 -0.047292 -0.007992     12.000000
 -0.102391 -0.035469  0.000000     12.000000
 -0.081913 -0.023646  0.007992     12.000000
 -0.061435 -0.011823  0.015984     12.000000
  0.000000  0.047292  0.055944      6.000000
  0.020478  0.059115  0.063937     12.000000
  0.040956  0.070939  0.071929     12.000000
 -0.143347 -0.035469  0.000000     12.000000
 -0.122869 -0.023646  0.007992     12.000000
 -0.102391 -0.011823  0.015984     12.000000
 -0.081913  0.000000  0.023976     12.000000
  0.000000  0.070939  0.071929      6.000000
  0.020478  0.082762  0.079921     12.000000
 -0.163826 -0.023646  0.007992     12.000000
 -0.143347 -0.011823  0.015984     12.000000
 -0.122869  0.000000  0.023976     12.000000
[...]
 -0.122869 -0.070939  0.023976      6.000000
  0.000000  0.023646  0.087913      6.000000
  0.020478  0.035469  0.095905     12.000000
 -0.163826 -0.070939  0.023976     12.000000
 -0.143347 -0.059115  0.031968     12.000000
  0.000000  0.047292  0.103897      6.000000
 -0.184304 -0.059115  0.031968     12.000000
 -0.163826 -0.047292  0.039960      6.000000
  0.000000 -0.165523 -0.039960      6.000000
  0.000000  0.000000  0.095905      2.000000
  0.020478  0.011823  0.103897      6.000000
 -0.163826 -0.094585  0.031968      6.000000
  0.000000  0.023646  0.111889      6.000000
 -0.184304 -0.082762  0.039960      6.000000
  0.000000  0.000000  0.119881      1.000000

 I would recommend the setting:
   dimension x,y,z NGX =    22 NGY =   22 NGZ =   22
 SYSTEM =  B12
 POSCAR =  XYZ: B12

 Startparameter for this run:
   NWRITE =      2    write-flag & timer
   PREC   = normal    normal or accurate (medium, high low for compatibility)
   ISTART =      0    job   : 0-new  1-cont  2-samecut
   ICHARG =      2    charge: 1-file 2-atom 10-const
   ISPIN  =      1    spin polarized calculation?
   LNONCOLLINEAR =      F non collinear calculations
   LSORBIT =      F    spin-orbit coupling
   INIWAV =      1    electr: 0-lowe 1-rand  2-diag
   LASPH  =      F    aspherical Exc in radial PAW
   METAGGA=      F    non-selfconsistent MetaGGA calc.

 Electronic Relaxation 1
[...]
 keeping initial charge density in first step

 Maximum index for non-local projection operator         2026
 Maximum index for augmentation-charges          615 (set IRDMAX)

 First call to EWALD:  gamma=   0.401
 Maximum number of real-space cells 3x 3x 3
 Maximum number of reciprocal cells 3x 3x 3

----------------------------------------- Iteration    1(   1)  ---------------------------------------

 eigenvalue-minimisations  :  6496
 total energy-change (2. order) : 0.3638854E+02  (-0.1246329E+04)
 number of electron      36.0000000 magnetization
 augmentation part       36.0000000 magnetization

 Free energy of the ion-electron system (eV)
  alpha Z        PSCENC =       115.01469804
  Ewald energy   TEWEN  =     -1018.57206117
  -1/2 Hartree   DENC   =       -76.61169290
  -exchange  EXHF       =         0.00000000
  -V(xc)+E(xc)   XCENC  =        87.48336571
  PAW double counting   =       521.99838607     -511.73454670
  entropy T*S    EENTRO =        -0.00046287
  eigenvalues    EBANDS =        64.85292371
  atomic energy  EATOM  =       853.95792905
  free energy    TOTEN  =        36.38853894 eV

  energy without entropy =       36.38900181  energy(sigma->0) =       36.38869323

 E-fermi :  12.2554     XC(G=0): -11.9065     alpha+bet :-15.4631

 k-point   1 :       0.0000    0.0000    0.0000
  band No.  band energies     occupation
      1     -10.8013      2.00000
      2      -4.2359      2.00000
      3      -3.8255      2.00000
      4      -2.7976      2.00000
      5      -2.1465      2.00000
      6      -1.9657      2.00000
      7      -1.1299      2.00000
      8      -0.0206      2.00000
      9       0.4536      2.00000
     10       1.2332      2.00000
     11       2.1156      2.00000
     12       2.6325      2.00000
     13       4.1686      2.00000
     14       4.3455      2.00000
     15       7.2682      2.00000
     16       7.4913      2.00000
     17      10.8818      2.00000
     18      12.8138     -0.00057
     19      13.2182      0.00000
     20      14.8112      0.00000
     21      16.2887      0.00000
     22      17.3587      0.00000
     23      19.2961      0.00000
     24      19.7953      0.00000
     25      21.0751      0.00000
     26      21.8905      0.00000
     27      23.6794      0.00000
     28      27.4762      0.00000

[...]

 eigenvalue-minimisations  :  8308
 total energy-change (2. order) :-0.1174830E+03  (-0.1125338E+03)
 number of electron      36.0000000 magnetization
 augmentation part       36.0000000 magnetization

[...]

 Broyden mixing:
  rms(total) = 0.11544E+01    rms(broyden)= 0.11542E+01
  rms(prec ) = 0.26650E+01
  weight for this iteration     100.00

[...]

 eigenvalues of (default mixing * dielectric matrix)
  average eigenvalue GAMMA=   2.0599
  2.0599

[...]

 eigenvalues of (default mixing * dielectric matrix)
  average eigenvalue GAMMA=   1.7385
  3.2003  2.4069  2.4069  1.4119  1.4119  0.9607  1.0546  1.0546

[...]

 average (electrostatic) potential at core
  the test charge radii are     0.7672
  (the norm of the test charge is              1.0000)
       1 -25.3866       2 -25.3866       3 -25.3866       4 -25.3866       5 -25.3866
       6 -25.3866       7 -26.9009       8 -26.9009       9 -26.9009      10 -26.9009
      11 -26.9009      12 -26.9009

[...]

 soft charge-density along one line, spin component           1
         0         1         2         3         4         5         6         7         8         9
 total charge-density along one line

------------------------ aborting loop because EDIFF is reached ----------------------------------------

  FORCE on cell =-STRESS in cart. coord.  units (eV):
  Direction    XX          YY          ZZ          XY          YZ          ZX
  Alpha Z   115.01470   115.01470   115.01470
  Ewald    -324.68615  -324.68615  -369.20209     0.00000     0.00000     0.00000
  Hartree    41.87939    41.87939    27.07169     0.00000     0.00000     0.00000
  E(xc)    -117.74934  -117.74934  -118.09780     0.00000     0.00000     0.00000
  Local     -98.59353   -98.59353   -51.70863     0.00000     0.00000     0.00000
  n-local   -13.65397   -13.36785   -16.44189    -1.47363    -0.66403    -0.42064
  augment     0.88764     0.88764     0.78586     0.00000     0.00000     0.00000
  Kinetic   398.18515   395.32013   412.59787     7.70505     5.74079     2.02411
  Fock        0.00000     0.00000     0.00000     0.00000     0.00000     0.00000
  Total      -0.00555    -0.00555     0.01972     0.00000     0.00000     0.00000
  in kB      -0.10319    -0.10319     0.36689     0.00000     0.00000     0.00000

 VOLUME and BASIS-vectors are now :
  energy-cutoff  :      318.61
  volume of cell :       86.13
      direct lattice vectors                 reciprocal lattice vectors
     2.441621087  1.409670592  4.170801094     0.204781980  0.118230931  0.079920698
    -2.441621087  1.409670592  4.170801094    -0.204781980  0.118230931  0.079920698
     0.000000000 -2.819341183  4.170801094     0.000000000 -0.236461862  0.079920698

[...]

 FORCES acting on ions
    electron-ion (+dipol)            ewald-force                    non-local-force                 convergence-correction
   -.254E+02 0.147E+02 0.309E+02   0.276E+02 -.159E+02 -.356E+02   -.222E+01 0.128E+01 0.473E+01   -.442E-03 0.255E-03 -.168E-03
   0.156E-12 -.293E+02 0.309E+02   0.167E-14 0.319E+02 -.356E+02   -.867E-17 -.257E+01 0.473E+01   0.583E-15 -.510E-03 -.168E-03
   0.254E+02 0.147E+02 0.309E+02   -.276E+02 -.159E+02 -.356E+02   0.222E+01 0.128E+01 0.473E+01   0.442E-03 0.255E-03 -.168E-03
   -.254E+02 -.147E+02 -.309E+02   0.276E+02 0.159E+02 0.356E+02   -.222E+01 -.128E+01 -.473E+01   -.442E-03 -.255E-03 0.168E-03
   -.357E-12 0.293E+02 -.309E+02   -.711E-14 -.319E+02 0.356E+02   0.347E-17 0.257E+01 -.473E+01   0.212E-14 0.510E-03 0.168E-03
   0.254E+02 -.147E+02 -.309E+02   -.276E+02 0.159E+02 0.356E+02   0.222E+01 -.128E+01 -.473E+01   0.442E-03 -.255E-03 0.168E-03
   -.441E+02 0.254E+02 -.204E+02   0.430E+02 -.248E+02 0.206E+02   0.105E+01 -.608E+00 -.292E+00   -.919E-03 0.531E-03 -.153E-03
   -.226E-12 -.509E+02 -.204E+02   -.278E-14 0.497E+02 0.206E+02   0.694E-17 0.122E+01 -.292E+00   -.123E-15 -.106E-02 -.153E-03
   0.441E+02 0.254E+02 -.204E+02   -.430E+02 -.248E+02 0.206E+02   -.105E+01 -.608E+00 -.292E+00   0.919E-03 0.531E-03 -.153E-03
   -.441E+02 -.254E+02 0.204E+02   0.430E+02 0.248E+02 -.206E+02   0.105E+01 0.608E+00 0.292E+00   -.919E-03 -.531E-03 0.153E-03
   0.164E-12 0.509E+02 0.204E+02   -.516E-14 -.497E+02 -.206E+02   -.139E-16 -.122E+01 0.292E+00   0.539E-15 0.106E-02 0.153E-03
   0.441E+02 -.254E+02 0.204E+02   -.430E+02 0.248E+02 -.206E+02   -.105E+01 0.608E+00 0.292E+00   0.919E-03 -.531E-03 0.153E-03
   -.274E-12 0.326E-12 -.873E-12   0.711E-14 0.284E-13 0.000E+00   -.666E-15 -.111E-15 -.178E-14   0.378E-14 0.258E-14 0.315E-14

 POSITION                                       TOTAL-FORCE (eV/Angst)
     -1.57097      0.90700      2.81413        -0.001822      0.001052      0.003353
      0.00000     -1.81400      2.81413         0.000000     -0.002104      0.003353
      1.57097      0.90700      2.81413         0.001822      0.001052      0.003353
     -1.57097     -0.90700      9.69828        -0.001822     -0.001052     -0.003353
      0.00000      1.81400      9.69828         0.000000      0.002104     -0.003353
      1.57097     -0.90700      9.69828         0.001822     -0.001052     -0.003353
     -0.99763      0.57598      4.47472         0.002347     -0.001355      0.001139
      0.00000     -1.15197      4.47472         0.000000      0.002711      0.001139
      0.99763      0.57598      4.47472        -0.002347     -0.001355      0.001139
     -0.99763     -0.57598      8.03768         0.002347      0.001355     -0.001139
      0.00000      1.15197      8.03768         0.000000     -0.002711     -0.001139
      0.99763     -0.57598      8.03768        -0.002347      0.001355     -0.001139
    total drift:                                0.000000      0.000000      0.000000

  FREE ENERGIE OF THE ION-ELECTRON SYSTEM (eV)
  free  energy   TOTEN  =       -80.346475 eV

  energy  without entropy=      -80.346572  energy(sigma->0) =      -80.346507

[...]

 eigenvalue-minimisations  :  7072
 total energy-change (2. order) :-0.2745294E-05  (-0.1051879E-04)
 number of electron      36.0000003 magnetization
 augmentation part       -0.1083887 magnetization

[...]

 d Force = 0.1683064E-05[-0.152E-06, 0.352E-05]  d Energy = 0.2152515E-05-0.469E-06
 d Force =-0.4113624E-02[-0.412E-02,-0.411E-02]  d Ewald  =-0.1151209E-01 0.740E-02

 Steepest descent step on ions:
 trial-energy change:   -0.000002  1 .order   -0.000002   -0.000004    0.000000
  (g-gl).g = 0.442E-05      g.g   = 0.442E-05  gl.gl    = 0.000E+00
 g(Force)  = 0.352E-05   g(Stress)= 0.906E-06 ortho     = 0.000E+00
 gamma     =   0.00000
 trial     =   1.00000
 opt step  =   1.05433  (harmonic =   1.05433) maximal distance =0.00008526
 next E    =   -80.346477   (d E  =   0.00000)

[...]

 Broyden mixing:
  rms(total) = 0.40715E-04    rms(broyden)= 0.40692E-04
  rms(prec ) = 0.10251E-03
  weight for this iteration     100.00

[...]

----------------------------------------- Iteration    3(   2)  ---------------------------------------

 eigenvalue-minimisations  :  3644
 total energy-change (2. order) : 0.1408216E-07  (-0.4806713E-08)
 number of electron      36.0000003 magnetization
 augmentation part       -0.1083793 magnetization

 Free energy of the ion-electron system (eV)
  alpha Z        PSCENC =       115.01259488
  Ewald energy   TEWEN  =     -1018.55992301
  -1/2 Hartree   DENC   =      -110.83651505
  -exchange  EXHF       =         0.00000000
  -V(xc)+E(xc)   XCENC  =        89.80077974
  PAW double counting   =      3519.56158826    -3510.27790878
  entropy T*S    EENTRO =         0.00009723
  eigenvalues    EBANDS =       -19.00511872
  atomic energy  EATOM  =       853.95792905
  free energy    TOTEN  =       -80.34647640 eV

  energy without entropy =      -80.34657363  energy(sigma->0) =      -80.34650881

 average (electrostatic) potential at core
  the test charge radii are     0.7672
  (the norm of the test charge is              1.0000)
       1 -25.3872       2 -25.3872       3 -25.3872       4 -25.3872       5 -25.3872
       6 -25.3872       7 -26.9010       8 -26.9010       9 -26.9010      10 -26.9010
      11 -26.9010      12 -26.9010

 E-fermi :   6.1500     XC(G=0): -11.5956     alpha+bet :-15.4628

[...]

 k-point 116 :       0.5000    0.5000    0.5000
  band No.  band energies     occupation
      1      -9.6895      2.00000
      2      -6.7384      2.00000
      3      -4.3749      2.00000
      4      -4.3749      2.00000
      5      -3.8142      2.00000
      6      -2.8056      2.00000
      7      -2.8056      2.00000
      8      -0.5985      2.00000
      9       0.2484      2.00000
     10       0.2484      2.00000
     11       1.1481      2.00000
     12       1.9408      2.00000
     13       2.6829      2.00000
     14       2.6829      2.00000
     15       2.9813      2.00000
     16       4.1095      2.00000
     17       4.1095      2.00000
     18       6.0334      1.82466
     19       8.5966      0.00000
     20       8.7882      0.00000
     21       8.7882      0.00000
     22      10.9591      0.00000
     23      10.9591      0.00000
     24      11.5154      0.00000
     25      12.0334      0.00000
     26      13.1688      0.00000
     27      13.1688      0.00000
     28      13.7241      0.00000

 soft charge-density along one line, spin component           1
         0         1         2         3         4         5         6         7         8         9
 total charge-density along one line

------------------------ aborting loop because EDIFF is reached ----------------------------------------

  FORCE on cell =-STRESS in cart. coord.  units (eV):
  Direction    XX          YY          ZZ          XY          YZ          ZX
  Alpha Z   115.01259   115.01259   115.01259
  Ewald    -324.62777  -324.62777  -369.30669     0.00000     0.00000     0.00000
  Hartree    41.89527    41.89527    27.04619     0.00000     0.00000     0.00000
  E(xc)    -117.74851  -117.74851  -118.09698     0.00000     0.00000     0.00000
  Local     -98.65910   -98.65910   -51.59272     0.00000     0.00000     0.00000
  n-local   -13.65452   -13.36860   -16.44317    -1.47347    -0.66405    -0.42073
  augment     0.88755     0.88755     0.78583     0.00000     0.00000     0.00000
  Kinetic   398.18187   395.31741   412.59447     7.70330     5.74047     2.02467
  Fock        0.00000     0.00000     0.00000     0.00000     0.00000     0.00000
  Total      -0.00188    -0.00188    -0.00048     0.00000     0.00000     0.00000
  in kB      -0.03503    -0.03503    -0.00885     0.00000     0.00000     0.00000

 VOLUME and BASIS-vectors are now :
  energy-cutoff  :      318.61
  volume of cell :       86.13
      direct lattice vectors                 reciprocal lattice vectors
     2.441592380  1.409654018  4.170975440     0.204784387  0.118232321  0.079917357
    -2.441592380  1.409654018  4.170975440    -0.204784387  0.118232321  0.079917357
     0.000000000 -2.819308036  4.170975440     0.000000000 -0.236464642  0.079917357

  length of vectors
     5.034434817  5.034434817  5.034434816     0.249604309  0.249604309  0.249604309

 FORCES acting on ions
    electron-ion (+dipol)            ewald-force                    non-local-force                 convergence-correction
   -.254E+02 0.147E+02 0.309E+02   0.276E+02 -.159E+02 -.357E+02   -.222E+01 0.128E+01 0.473E+01   0.274E-04 -.158E-04 0.123E-03
   0.365E-12 -.293E+02 0.309E+02   0.633E-14 0.319E+02 -.357E+02   -.895E-19 -.256E+01 0.473E+01   0.765E-13 0.316E-04 0.123E-03
   0.254E+02 0.147E+02 0.309E+02   -.276E+02 -.159E+02 -.357E+02   0.222E+01 0.128E+01 0.473E+01   -.274E-04 -.158E-04 0.123E-03
   -.254E+02 -.147E+02 -.309E+02   0.276E+02 0.159E+02 0.357E+02   -.222E+01 -.128E+01 -.473E+01   0.274E-04 0.158E-04 -.123E-03
   -.517E-12 0.293E+02 -.309E+02   -.167E-14 -.319E+02 0.357E+02   0.182E-17 0.256E+01 -.473E+01   -.783E-13 -.316E-04 -.123E-03
   0.254E+02 -.147E+02 -.309E+02   -.276E+02 0.159E+02 0.357E+02   0.222E+01 -.128E+01 -.473E+01   -.274E-04 0.158E-04 -.123E-03
   -.441E+02 0.254E+02 -.204E+02   0.430E+02 -.248E+02 0.206E+02   0.105E+01 -.608E+00 -.293E+00   0.459E-05 -.265E-05 -.204E-04
   -.752E-13 -.509E+02 -.204E+02   -.711E-14 0.497E+02 0.206E+02   0.139E-16 0.122E+01 -.293E+00   -.852E-14 0.530E-05 -.204E-04
   0.441E+02 0.254E+02 -.204E+02   -.430E+02 -.248E+02 0.206E+02   -.105E+01 -.608E+00 -.293E+00   -.459E-05 -.265E-05 -.204E-04
   -.441E+02 -.254E+02 0.204E+02   0.430E+02 0.248E+02 -.206E+02   0.105E+01 0.608E+00 0.293E+00   0.459E-05 0.265E-05 0.204E-04
   0.179E-12 0.509E+02 0.204E+02   0.222E-14 -.497E+02 -.206E+02   -.696E-17 -.122E+01 0.293E+00   -.213E-12 -.530E-05 0.204E-04
   0.441E+02 -.254E+02 0.204E+02   -.430E+02 0.248E+02 -.206E+02   -.105E+01 0.608E+00 0.293E+00   -.459E-05 0.265E-05 0.204E-04
   0.797E-12 -.233E-12 -.152E-11   -.213E-13 -.355E-14 0.178E-13   0.222E-15 -.222E-15 -.183E-14   -.247E-12 0.732E-13 0.773E-12

 POSITION                                       TOTAL-FORCE (eV/Angst)
     -1.57100      0.90702      2.81433         0.001663     -0.000960     -0.000682
      0.00000     -1.81404      2.81433         0.000000      0.001920     -0.000682
      1.57100      0.90702      2.81433        -0.001663     -0.000960     -0.000682
     -1.57100     -0.90702      9.69860         0.001663      0.000960      0.000682
      0.00000      1.81404      9.69860         0.000000     -0.001920      0.000682
      1.57100     -0.90702      9.69860        -0.001663      0.000960      0.000682
     -0.99756      0.57594      4.47494         0.000635     -0.000367      0.000103
      0.00000     -1.15188      4.47494         0.000000      0.000733      0.000103
      0.99756      0.57594      4.47494        -0.000635     -0.000367      0.000103
     -0.99756     -0.57594      8.03799         0.000635      0.000367     -0.000103
      0.00000      1.15188      8.03799         0.000000     -0.000733     -0.000103
      0.99756     -0.57594      8.03799        -0.000635      0.000367     -0.000103
    total drift:                                0.000000      0.000000      0.000000

  FREE ENERGIE OF THE ION-ELECTRON SYSTEM (eV)
  free  energy   TOTEN  =       -80.346476 eV

  energy  without entropy=      -80.346574  energy(sigma->0) =      -80.346509

 d Force =-0.2073593E-07[-0.332E-07,-0.827E-08]  d Energy =-0.2543202E-06 0.234E-06
 d Force =-0.2239415E-03[-0.224E-03,-0.224E-03]  d Ewald  =-0.6260663E-03 0.402E-03

 reached required accuracy - stopping structural energy minimisation