 vasp.5.2.12 26May11 complex
 executed on             LinuxIFC date 2012.05.25  10:19:02

 INCAR:
 POTCAR:    PAW_PBE B 06Sep2000
 POTCAR:    PAW_PBE B 06Sep2000
   VRHFIN =B: s2p1

   TITEL  = PAW_PBE B 06Sep2000
   POMASS =   10.811; ZVAL   =    3.000    mass and valenz
   ENMAX  =  318.614; ENMIN  =  238.960 eV

 Optimization of the real space projectors (new method)

 maximal supplied QI-value         = 22.11
 optimisation between [QCUT,QGAM] = [  9.07, 18.13] = [ 23.01, 92.04] Ry
 Optimized for a Real-space Cutoff    1.46 Angstroem

   l    n(q)    QCUT    max X(q) W(low)/X(q) W(high)/X(q)  e(spline)
   0      8     9.065    53.033    0.38E-03    0.70E-03    0.20E-06
   0      8     9.065    34.740    0.38E-03    0.69E-03    0.20E-06
   1      7     9.065    30.949    0.34E-03    0.21E-03    0.23E-06
   1      7     9.065    19.518    0.31E-03    0.17E-03    0.22E-06
  PAW_PBE B 06Sep2000                   :

 POSCAR: XYZ: B28
  positions in direct lattice
 exchange correlation table for  LEXCH =        8
   RHO(1)=    0.500       N(1)  =     2000
   RHO(2)=  100.500       N(2)  =     4000

 ion  position               nearest neighbor table
   1  0.170  0.521  0.000-  21 1.67   2 1.73  11 1.90   8 1.90  19 2.05  16 2.05
   2  0.830  0.479  0.000-  22 1.67   1 1.73  12 1.90   7 1.90  20 2.05  15 2.05
   3  0.670  0.979  0.500-  23 1.67   4 1.73   9 1.90   6 1.90  17 2.05  14 2.05
   4  0.330  0.021  0.500-  24 1.67   3 1.73  10 1.90   5 1.90  18 2.05  13 2.05
   5  0.161  0.281  0.374-  10 1.74  28 1.78  23 1.81  13 1.82  15 1.83  16 1.84   4 1.90
   6  0.839  0.719  0.374-   9 1.74  27 1.78  24 1.81  14 1.82  16 1.83  15 1.84   3 1.90
   7  0.661  0.219  0.126-  12 1.74  26 1.78  21 1.81  15 1.82  13 1.83  14 1.84   2 1.90
   8  0.339  0.781  0.126-  11 1.74  25 1.78  22 1.81  16 1.82  14 1.83  13 1.84   1 1.90
   9  0.839  0.719  0.626-   6 1.74  27 1.78  24 1.81  17 1.82  19 1.83  20 1.84   3 1.90
  10  0.161  0.281  0.626-   5 1.74  28 1.78  23 1.81  18 1.82  20 1.83  19 1.84   4 1.90
  11  0.339  0.781  0.874-   8 1.74  25 1.78  22 1.81  19 1.82  17 1.83  18 1.84   1 1.90
  12  0.661  0.219  0.874-   7 1.74  26 1.78  21 1.81  20 1.82  18 1.83  17 1.84   2 1.90
  13  0.347  0.092  0.209-  21 1.76  25 1.78   5 1.82   7 1.83   8 1.84  14 1.86   4 2.05
  14  0.653  0.908  0.209-  22 1.76  26 1.78   6 1.82   8 1.83   7 1.84  13 1.86   3 2.05
  15  0.847  0.408  0.291-  23 1.76  27 1.78   7 1.82   5 1.83   6 1.84  16 1.86   2 2.05
  16  0.153  0.592  0.291-  24 1.76  28 1.78   8 1.82   6 1.83   5 1.84  15 1.86   1 2.05
  17  0.653  0.908  0.791-  22 1.76  26 1.78   9 1.82  11 1.83  12 1.84  18 1.86   3 2.05
  18  0.347  0.092  0.791-  21 1.76  25 1.78  10 1.82  12 1.83  11 1.84  17 1.86   4 2.05
  19  0.153  0.592  0.709-  24 1.76  28 1.78  11 1.82   9 1.83  10 1.84  20 1.86   1 2.05
  20  0.847  0.408  0.709-  23 1.76  27 1.78  12 1.82  10 1.83   9 1.84  19 1.86   2 2.05
  21  0.352  0.271  0.000-   1 1.67  25 1.75  18 1.76  13 1.76  12 1.81   7 1.81
  22  0.648  0.729  0.000-   2 1.67  26 1.75  17 1.76  14 1.76  11 1.81   8 1.81
  23  0.852  0.229  0.500-   3 1.67  27 1.75  20 1.76  15 1.76  10 1.81   5 1.81
  24  0.148  0.771  0.500-   4 1.67  28 1.75  19 1.76  16 1.76   9 1.81   6 1.81
  25  0.164  0.008  0.000-  26 1.66  21 1.75   8 1.78  11 1.78  13 1.78  18 1.78
  26  0.836  0.992  0.000-  25 1.66  22 1.75   7 1.78  12 1.78  14 1.78  17 1.78
  27  0.664  0.492  0.500-  28 1.66  23 1.75   6 1.78   9 1.78  15 1.78  20 1.78
  28  0.336  0.508  0.500-  27 1.66  24 1.75   5 1.78  10 1.78  16 1.78  19 1.78

  LATTYP: Found a simple orthorhombic cell.
 ALAT       =     5.0430000000
 B/A-ratio  =     1.1128296649
 C/A-ratio  =     1.3723973825

  Lattice vectors:

 A1 = (   5.0430000000,   0.0000000000,   0.0000000000)
 A2 = (   0.0000000000,   5.6120000000,   0.0000000000)
 A3 = (   0.0000000000,   0.0000000000,   6.9210000000)
 Subroutine PRICEL returns:
 Original cell was already a primitive cell.

Analysis of symmetry for initial positions (statically):

 Routine SETGRP: Setting up the symmetry group for a
 simple orthorhombic supercell.

 Subroutine GETGRP returns: Found  8 space group operations
 (whereof  4 operations were pure point group operations)
 out of a pool of  8 trial point group operations.

The static configuration has the point symmetry C_2h.
 The point group associated with its full space group is D_2h.

Analysis of symmetry for dynamics (positions and initial velocities):

 Subroutine DYNSYM returns: Found  8 space group operations
 (whereof  4 operations were pure point group operations)
 out of a pool of  8 trial space group operations
 (whereof  4 operations were pure point group operations)
 and found also     1 'primitive' translations

The dynamic configuration has the point symmetry C_2h.
 The point group associated with its full space group is D_2h.

 KPOINTS: Automatic mesh

Automatic generation of k-mesh.

 Subroutine IBZKPT returns following result:

 Found     18 irreducible k-points:

 Following reciprocal coordinates:
            Coordinates               Weight
  0.083333  0.000000  0.125000      4.000000
  0.250000  0.000000  0.125000      4.000000
  0.416667  0.000000  0.125000      4.000000
  0.083333  0.200000  0.125000      8.000000
  0.250000  0.200000  0.125000      8.000000
  0.416667  0.200000  0.125000      8.000000
  0.083333  0.400000  0.125000      8.000000
  0.250000  0.400000  0.125000      8.000000
  0.416667  0.400000  0.125000      8.000000
  0.083333  0.000000  0.375000      4.000000
  0.250000  0.000000  0.375000      4.000000
  0.416667  0.000000  0.375000      4.000000
  0.083333  0.200000  0.375000      8.000000
  0.250000  0.200000  0.375000      8.000000
  0.416667  0.200000  0.375000      8.000000
  0.083333  0.400000  0.375000      8.000000
  0.250000  0.400000  0.375000      8.000000
  0.416667  0.400000  0.375000      8.000000

 Following cartesian coordinates:
            Coordinates               Weight
  0.016525  0.000000  0.018061      4.000000
  0.049574  0.000000  0.018061      4.000000
  0.082623  0.000000  0.018061      4.000000
  0.016525  0.035638  0.018061      8.000000
  0.049574  0.035638  0.018061      8.000000
  0.082623  0.035638  0.018061      8.000000
  0.016525  0.071276  0.018061      8.000000
  0.049574  0.071276  0.018061      8.000000
  0.082623  0.071276  0.018061      8.000000
  0.016525  0.000000  0.054183      4.000000
  0.049574  0.000000  0.054183      4.000000
  0.082623  0.000000  0.054183      4.000000
  0.016525  0.035638  0.054183      8.000000
  0.049574  0.035638  0.054183      8.000000
  0.082623  0.035638  0.054183      8.000000
  0.016525  0.071276  0.054183      8.000000
  0.049574  0.071276  0.054183      8.000000
  0.082623  0.071276  0.054183      8.000000

 I would recommend the setting:
   dimension x,y,z NGX =    22 NGY =   25 NGZ =   30
 SYSTEM =  B28
 POSCAR =  XYZ: B28

 Startparameter for this run:
   NWRITE =      2    write-flag & timer
   PREC   = normal    normal or accurate (medium, high low for compatibility)
   ISTART =      0    job   : 0-new  1-cont  2-samecut
   ICHARG =      2    charge: 1-file 2-atom 10-const
   ISPIN  =      1    spin polarized calculation?
   LNONCOLLINEAR =      F non collinear calculations
   LSORBIT =      F    spin-orbit coupling
   INIWAV =      1    electr: 0-lowe 1-rand  2-diag
   LASPH  =      F    aspherical Exc in radial PAW
   METAGGA=      F    non-selfconsistent MetaGGA calc.

 Electronic Relaxation 1
   ENCUT  =  318.6 eV  23.42 Ry    4.84 a.u.   7.34  8.17 10.07*2*pi/ulx,y,z
   ENINI  =  318.6     initial cutoff
   ENAUG  =  535.5 eV  augmentation charge cutoff
   NELM   =     40;   NELMIN=  2; NELMDL=  0     # of ELM steps
   EDIFF  = 0.1E-05   stopping-criterion for ELM
   LREAL  =      T    real-space projection
   LCOMPAT=      F    compatible to vasp.4.4
   GGA_COMPAT  = T    GGA compatible to vasp.4.4-vasp.4.6
   LMAXPAW     = -100 max onsite density
   LMAXMIX     =    2 max onsite mixed and CHGCAR
   VOSKOWN=      0    Vosko Wilk Nusair interpolation
   ROPT   =   -0.00050
 Ionic relaxation
   EDIFFG = 0.1E-04   stopping-criterion for IOM
   NSW    =     10    number of steps for IOM
   NBLOCK =      1;   KBLOCK =     10    inner block; outer block
   IBRION =      2    ionic relax: 0-MD 1-quasi-New 2-CG
   NFREE  =      1    steps in history (QN), initial steepest desc. (CG)
   ISIF   =      3    stress and relaxation
   IWAVPR =     11    prediction:  0-non 1-charg 2-wave 3-comb
   ISYM   =      2    0-nonsym 1-usesym 2-fastsym
   LCORR  =      T    Harris-Foulkes like correction to forces

   POTIM  = 0.2500    time-step for ionic-motion
   TEIN   =    0.0    initial temperature
   TEBEG  =    0.0;   TEEND  =   0.0 temperature during run
   SMASS  =  -3.00    Nose mass-parameter (am)
   estimated Nose-frequenzy (Omega)   =  0.10E-29 period in steps =****** mass=  -0.581E-27a.u.
   SCALEE = 1.0000    scale energy and forces
   NPACO  =    256;   APACO  = 16.0  distance and # of slots for P.C.
   PSTRESS=    0.0 pullay stress

  Mass of Ions in am
   POMASS =  10.81
  Ionic Valenz
   ZVAL   =   3.00
  Atomic Wigner-Seitz radii
  virtual crystal weights
   VCA    =   1.00
   NELECT =      84.0000    total number of electrons
   NUPDOWN=      -1.0000    fix difference up-down

 DOS related values:
   EMIN   =  10.00;   EMAX   =-10.00  energy-range for DOS
   EFERMI =   0.00
   ISMEAR =     1;   SIGMA  =   0.20  broadening in eV -4-tet -1-fermi 0-gaus

 Electronic relaxation 2 (details)
   IALGO  =     38    algorithm
   LDIAG  =      T    sub-space diagonalisation (order eigenvalues)
   LSUBROT=      T    optimize rotation matrix (better conditioning)
   TURBO    =      0    0=normal 1=particle mesh
   IRESTART =      0    0=no restart 2=restart with 2 vectors
   NREBOOT  =      0    no. of reboots
   NMIN     =      0    reboot dimension
   EREF     =   0.00    reference energy to select bands
   IMIX   =      4    mixing-type and parameters
     AMIX     =   0.40;   BMIX     =  1.00
     AMIX_MAG =   1.60;   BMIX_MAG =  1.00
     AMIN     =   0.10
     WC   =   100.;   INIMIX=   1;  MIXPRE=   1

 Intra band minimization:
   WEIMIN = 0.0010     energy-eigenvalue tresh-hold
   EBREAK =  0.44E-08  absolut break condition
   DEPER  =   0.30     relativ break condition

   TIME   =   0.40     timestep for ELM

  volume/ion in A,a.u.               =       7.00        47.21
  Fermi-wavevector in a.u.,A,eV,Ry     =   1.234552  2.332965 20.736897  1.524119
  Thomas-Fermi vector in A             =   2.369238

 Write flags
   LWAVE  =      F    write WAVECAR
   LCHARG =      F    write CHGCAR
   LVTOT  =      F    write LOCPOT, total local potential
   LVHAR  =      F    write LOCPOT, Hartree potential only
   LELF   =      F    write electronic localiz. function (ELF)
   LORBIT =      0    0 simple, 1 ext, 2 COOP (PROOUT)

 Dipole corrections
   LMONO  =      F    monopole corrections only (constant potential shift)
   LDIPOL =      F    correct potential (dipole corrections)
   IDIPOL =      0    1-x, 2-y, 3-z, 4-all directions
   EPSILON=  1.0000000 bulk dielectric constant

 Exchange correlation treatment:
[...]
      1.75093      0.51855      5.47243        -0.001820      0.012807      0.007759
      0.77057      3.32455      4.90907         0.001820      0.012807     -0.007759
      4.27243      2.28745      4.90907        -0.001820     -0.012807     -0.007759
      1.77514      1.52141      0.00000         0.006543     -0.010344      0.000000
      3.26786      4.09059      0.00000        -0.006543      0.010344      0.000000
      4.29664      1.28459      3.46050         0.006543      0.010344      0.000000
      0.74636      4.32741      3.46050        -0.006543     -0.010344      0.000000
      0.82907      0.04490      0.00000        -0.001877     -0.007408      0.000000
      4.21393      5.56710      0.00000         0.001877      0.007408      0.000000
      3.35057      2.76110      3.46050        -0.001877      0.007408      0.000000
      1.69243      2.85090      3.46050         0.001877     -0.007408      0.000000
    total drift:                                0.000000      0.000000      0.000000

  FREE ENERGIE OF THE ION-ELECTRON SYSTEM (eV)
  free  energy   TOTEN  =      -186.727354 eV

  energy  without entropy=     -186.732362  energy(sigma->0) =     -186.729023

[...]

 d Force = 0.7320216E-05[-0.687E-04, 0.834E-04]  d Energy = 0.1135771E-01-0.114E-01
 d Force =-0.1291372E+00[-0.130E+00,-0.129E+00]  d Ewald  = 0.5712580E+01-0.584E+01

 Steepest descent step on ions:
 trial-energy change:   -0.011358  1 .order   -0.011293   -0.019201   -0.003386
  (g-gl).g = 0.192E-01      g.g   = 0.192E-01  gl.gl    = 0.000E+00
 g(Force)  = 0.836E-04   g(Stress)= 0.191E-01 ortho     = 0.000E+00
 gamma     =   0.00000
 trial     =   1.00000
 opt step  =   1.20799  (harmonic =   1.21412) maximal distance =0.00037317
 next E    =  -186.739064   (d E  =  -0.01171)

[...]

 d Force =-0.1774968E-04[-0.212E-04,-0.143E-04]  d Energy = 0.3645363E-03-0.382E-03
 d Force =-0.2701362E-01[-0.270E-01,-0.270E-01]  d Ewald  = 0.1191438E+01-0.122E+01

[...]

 d Force = 0.7649496E-03[ 0.388E-03, 0.114E-02]  d Energy = 0.7917762E-03-0.268E-04
 d Force = 0.8573042E+00[ 0.854E+00, 0.860E+00]  d Ewald  = 0.1243472E+01-0.386E+00

 Conjugate gradient step on ions:
 trial-energy change:   -0.000792  1 .order   -0.000794   -0.001171   -0.000416
  (g-gl).g = 0.108E-02      g.g   = 0.112E-02  gl.gl    = 0.192E-01
 g(Force)  = 0.110E-02   g(Stress)= 0.201E-04 ortho     = 0.379E-04
 gamma     =   0.05649
 trial     =   1.04160
 opt step  =   1.61477  (harmonic =   1.61477) maximal distance =0.00203002
 next E    =  -186.739984   (d E  =  -0.00091)

[...]

 d Force = 0.9899955E-04[-0.154E-04, 0.213E-03]  d Energy = 0.1140793E-03-0.151E-04
 d Force = 0.4693579E+00[ 0.468E+00, 0.470E+00]  d Ewald  = 0.6819259E+00-0.213E+00

[...]

 d Force = 0.1053719E-03[ 0.428E-04, 0.168E-03]  d Energy = 0.1498964E-03-0.445E-04
 d Force =-0.7772437E-01[-0.780E-01,-0.775E-01]  d Ewald  =-0.5843476E-02-0.719E-01

 Conjugate gradient step on ions:
 trial-energy change:   -0.000150  1 .order   -0.000152   -0.000233   -0.000072
  (g-gl).g = 0.203E-03      g.g   = 0.202E-03  gl.gl    = 0.112E-02
 g(Force)  = 0.150E-03   g(Stress)= 0.519E-04 ortho     =-0.942E-06
 gamma     =   0.18078
 trial     =   1.15623
 opt step  =   1.66737  (harmonic =   1.66737) maximal distance =0.00104881
 next E    =  -186.740150   (d E  =  -0.00017)

[...]

 d Force = 0.6655124E-05[-0.561E-05, 0.189E-04]  d Energy = 0.1473654E-04-0.808E-05
 d Force =-0.3449999E-01[-0.345E-01,-0.345E-01]  d Ewald  =-0.2756596E-02-0.317E-01

[...]

 eigenvalues of (default mixing * dielectric matrix)
  average eigenvalue GAMMA=   1.5792
  1.9929  1.1655

[...]

 eigenvalue-minimisations  :  2208
 total energy-change (2. order) :-0.9442668E-05  (-0.3931671E-04)
 number of electron      84.0000021 magnetization
 augmentation part       -0.2835321 magnetization

 Broyden mixing:
  rms(total) = 0.42882E-03    rms(broyden)= 0.42817E-03
  rms(prec ) = 0.69322E-03
  weight for this iteration     100.00

[...]

----------------------------------------- Iteration   10(   2)  ---------------------------------------

 eigenvalue-minimisations  :  2656
 total energy-change (2. order) : 0.1365424E-07  (-0.5427538E-06)
 number of electron      84.0000021 magnetization
 augmentation part       -0.2835321 magnetization

 Free energy of the ion-electron system (eV)
  alpha Z        PSCENC =       277.96294361
  Ewald energy   TEWEN  =     -2495.84438982
  -1/2 Hartree   DENC   =      -181.75542569
  -exchange  EXHF       =         0.00000000
  -V(xc)+E(xc)   XCENC  =       209.56259345
  PAW double counting   =      8003.30588632    -7981.59419291
  entropy T*S    EENTRO =         0.00488082
  eigenvalues    EBANDS =       -10.95100573
  atomic energy  EATOM  =      1992.56850112
  free energy    TOTEN  =      -186.74020883 eV

  energy without entropy =     -186.74508965  energy(sigma->0) =     -186.74183577

 average (electrostatic) potential at core
  the test charge radii are     0.7672
  (the norm of the test charge is              1.0000)
       1 -25.6738       2 -25.6738       3 -25.6738       4 -25.6738       5 -26.0602
       6 -26.0602       7 -26.0602       8 -26.0602       9 -26.0602      10 -26.0602
      11 -26.0602      12 -26.0602      13 -26.2631      14 -26.2631      15 -26.2631
      16 -26.2631      17 -26.2631      18 -26.2631      19 -26.2631      20 -26.2631
      21 -25.1418      22 -25.1418      23 -25.1418      24 -25.1418      25 -25.0108
      26 -25.0108      27 -25.0108      28 -25.0108

 E-fermi :   6.2505     XC(G=0): -11.8584     alpha+bet :-16.0160

[...]

 k-point  18 :       0.4167    0.4000    0.3750
  band No.  band energies     occupation
      1      -8.9235      2.00000
      2      -8.8617      2.00000
      3      -6.8251      2.00000
      4      -6.6093      2.00000
      5      -6.4607      2.00000
      6      -5.9212      2.00000
      7      -5.7829      2.00000
      8      -5.4627      2.00000
      9      -3.6269      2.00000
     10      -3.4279      2.00000
     11      -2.0352      2.00000
     12      -2.0172      2.00000
     13      -1.7279      2.00000
     14      -1.6279      2.00000
     15      -1.0211      2.00000
     16      -0.9430      2.00000
     17      -0.6481      2.00000
     18      -0.2288      2.00000
     19       0.1630      2.00000
     20       0.2309      2.00000
     21       0.3750      2.00000
     22       0.7014      2.00000
     23       0.7988      2.00000
     24       1.1609      2.00000
     25       2.0110      2.00000
     26       2.1977      2.00000
     27       2.2502      2.00000
     28       2.5189      2.00000
     29       2.6647      2.00000
     30       2.8826      2.00000
     31       2.9420      2.00000
     32       3.0160      2.00000
     33       3.1231      2.00000
     34       3.2602      2.00000
     35       3.7659      2.00000
     36       3.9009      2.00000
     37       4.2608      2.00000
     38       4.3812      2.00000
     39       4.7483      2.00000
     40       4.9595      2.00000
     41       5.4269      2.00000
     42       5.5307      2.00000
     43       7.9618      0.00000
     44       8.0430      0.00000
     45       8.9676      0.00000
     46       9.0775      0.00000
     47       9.3733      0.00000
     48       9.5344      0.00000
     49       9.9007      0.00000
     50      10.1358      0.00000
     51      10.8604      0.00000
     52      11.0807      0.00000
     53      11.3197      0.00000
     54      11.4490      0.00000
     55      12.3349      0.00000
     56      12.4335      0.00000
     57      12.8614      0.00000
     58      13.0529      0.00000
     59      13.2343      0.00000
     60      13.2962      0.00000

 soft charge-density along one line, spin component           1
         0         1         2         3         4         5         6         7         8         9
 total charge-density along one line

------------------------ aborting loop because EDIFF is reached ----------------------------------------

  FORCE on cell =-STRESS in cart. coord.  units (eV):
  Direction    XX          YY          ZZ          XY          YZ          ZX
  Alpha Z   277.96294   277.96294   277.96294
  Ewald    -876.44232  -810.92438  -808.48642     0.00000     0.00000     0.00000
  Hartree    49.23265    69.44599    63.07473     0.00000     0.00000     0.00000
  E(xc)    -275.07197  -274.71308  -274.36795     0.00000     0.00000     0.00000
  Local     -97.63870  -168.49962  -148.92169     0.00000     0.00000     0.00000
  n-local   -33.17222   -30.11931   -28.39571    -0.30796     0.25182    -0.13896
  augment     2.11628     2.19612     2.32099     0.00000     0.00000     0.00000
  Kinetic   953.00462   934.65216   916.82067     2.90939    -1.63849     0.72641
  Fock        0.00000     0.00000     0.00000     0.00000     0.00000     0.00000
  Total      -0.00872     0.00084     0.00755     0.00000     0.00000     0.00000
  in kB      -0.07198     0.00691     0.06237     0.00000     0.00000     0.00000

 VOLUME and BASIS-vectors are now :
  energy-cutoff  :      318.61
  volume of cell :      194.04
      direct lattice vectors                 reciprocal lattice vectors
     5.028573006  0.000000000  0.000000000     0.198863574  0.000000000  0.000000000
     0.000000000  5.596341509  0.000000000     0.000000000  0.178688166  0.000000000
     0.000000000  0.000000000  6.895054120     0.000000000  0.000000000  0.145031494

  length of vectors
     5.028573006  5.596341509  6.895054120     0.198863574  0.178688166  0.145031494

 FORCES acting on ions
    electron-ion (+dipol)            ewald-force                    non-local-force                 convergence-correction
   0.238E+01 -.222E+01 0.632E-06   -.412E+01 -.437E+01 0.241E-13   0.175E+01 0.658E+01 0.173E-17   0.278E-03 0.783E-03 -.231E-12
   -.238E+01 0.222E+01 -.632E-06   0.412E+01 0.437E+01 0.886E-14   -.175E+01 -.658E+01 -.173E-17   -.278E-03 -.783E-03 -.854E-13
   0.238E+01 0.222E+01 -.266E-06   -.412E+01 0.437E+01 0.101E-13   0.175E+01 -.658E+01 0.130E-17   0.278E-03 -.783E-03 0.431E-12
   -.238E+01 -.222E+01 0.266E-06   0.412E+01 -.437E+01 -.104E-13   -.175E+01 0.658E+01 -.130E-17   -.278E-03 0.783E-03 0.370E-12
   -.123E+02 0.252E+02 0.320E+02   0.126E+02 -.258E+02 -.336E+02   -.350E+00 0.595E+00 0.161E+01   0.291E-03 -.386E-03 0.923E-03
   0.123E+02 -.252E+02 0.320E+02   -.126E+02 0.258E+02 -.336E+02   0.350E+00 -.595E+00 0.161E+01   -.291E-03 0.386E-03 0.923E-03
   -.123E+02 -.252E+02 -.320E+02   0.126E+02 0.258E+02 0.336E+02   -.350E+00 -.595E+00 -.161E+01   0.291E-03 0.386E-03 -.923E-03
   0.123E+02 0.252E+02 -.320E+02   -.126E+02 -.258E+02 0.336E+02   0.350E+00 0.595E+00 -.161E+01   -.291E-03 -.386E-03 -.923E-03
   0.123E+02 -.252E+02 -.320E+02   -.126E+02 0.258E+02 0.336E+02   0.350E+00 -.595E+00 -.161E+01   -.291E-03 0.386E-03 -.923E-03
   -.123E+02 0.252E+02 -.320E+02   0.126E+02 -.258E+02 0.336E+02   -.350E+00 0.595E+00 -.161E+01   0.291E-03 -.386E-03 -.923E-03
   0.123E+02 0.252E+02 0.320E+02   -.126E+02 -.258E+02 -.336E+02   0.350E+00 0.595E+00 0.161E+01   -.291E-03 -.386E-03 0.923E-03
   -.123E+02 -.252E+02 0.320E+02   0.126E+02 0.258E+02 -.336E+02   -.350E+00 -.595E+00 0.161E+01   0.291E-03 0.386E-03 0.923E-03
   0.173E+02 -.766E+01 -.350E+02   -.188E+02 0.890E+01 0.354E+02   0.155E+01 -.123E+01 -.429E+00   -.152E-03 -.210E-03 0.210E-03
   -.173E+02 0.766E+01 -.350E+02   0.188E+02 -.890E+01 0.354E+02   -.155E+01 0.123E+01 -.429E+00   0.152E-03 0.210E-03 0.210E-03
   0.173E+02 0.766E+01 0.350E+02   -.188E+02 -.890E+01 -.354E+02   0.155E+01 0.123E+01 0.429E+00   -.152E-03 0.210E-03 -.210E-03
   -.173E+02 -.766E+01 0.350E+02   0.188E+02 0.890E+01 -.354E+02   -.155E+01 -.123E+01 0.429E+00   0.152E-03 -.210E-03 -.210E-03
   -.173E+02 0.766E+01 0.350E+02   0.188E+02 -.890E+01 -.354E+02   -.155E+01 0.123E+01 0.429E+00   0.152E-03 0.210E-03 -.210E-03
   0.173E+02 -.766E+01 0.350E+02   -.188E+02 0.890E+01 -.354E+02   0.155E+01 -.123E+01 0.429E+00   -.152E-03 -.210E-03 -.210E-03
   -.173E+02 -.766E+01 -.350E+02   0.188E+02 0.890E+01 0.354E+02   -.155E+01 -.123E+01 -.429E+00   0.152E-03 -.210E-03 0.210E-03
   0.173E+02 0.766E+01 -.350E+02   -.188E+02 -.890E+01 0.354E+02   0.155E+01 0.123E+01 -.429E+00   -.152E-03 0.210E-03 0.210E-03
   0.117E+02 -.365E+02 -.145E-06   -.145E+02 0.412E+02 -.475E-14   0.282E+01 -.470E+01 0.347E-17   0.104E-02 0.457E-03 -.325E-12
   -.117E+02 0.365E+02 0.145E-06   0.145E+02 -.412E+02 -.190E-13   -.282E+01 0.470E+01 -.347E-17   -.104E-02 -.457E-03 -.474E-12
   0.117E+02 0.365E+02 0.470E-07   -.145E+02 -.412E+02 -.143E-13   0.282E+01 0.470E+01 -.347E-17   0.104E-02 -.457E-03 0.471E-12
   -.117E+02 -.365E+02 -.470E-07   0.145E+02 0.412E+02 0.330E-14   -.282E+01 -.470E+01 0.347E-17   -.104E-02 0.457E-03 0.359E-12
   0.377E+02 -.326E+01 -.574E-06   -.430E+02 0.362E+01 -.313E-14   0.534E+01 -.360E+00 0.000E+00   -.190E-03 -.970E-03 -.402E-12
   -.377E+02 0.326E+01 0.574E-06   0.430E+02 -.362E+01 0.425E-14   -.534E+01 0.360E+00 0.000E+00   0.190E-03 0.970E-03 -.524E-12
   0.377E+02 0.326E+01 0.837E-06   -.430E+02 -.362E+01 0.153E-13   0.534E+01 0.360E+00 0.434E-18   -.190E-03 0.970E-03 0.414E-12
   -.377E+02 -.326E+01 -.837E-06   0.430E+02 0.362E+01 -.962E-14   -.534E+01 -.360E+00 -.434E-18   0.190E-03 -.970E-03 0.371E-12
   -.379E-10 0.228E-10 -.401E-12   0.711E-14 -.506E-13 -.635E-13   0.000E+00 -.888E-15 0.444E-15   0.235E-12 -.113E-12 -.153E-12

 POSITION                                       TOTAL-FORCE (eV/Angst)
      0.85672      2.91706      0.00000         0.000534     -0.000059      0.000000
      4.17185      2.67929      0.00000        -0.000534      0.000059      0.000000
      3.37101      5.47746      3.44753         0.000534      0.000059      0.000000
      1.65756      0.11888      3.44753        -0.000534     -0.000059      0.000000
      0.80740      1.57274      2.57964         0.000341      0.001344     -0.000017
      4.22118      4.02360      2.57964        -0.000341     -0.001344     -0.000017
      3.32168      1.22543      0.86788         0.000341     -0.001344      0.000017
      1.70689      4.37091      0.86788        -0.000341      0.001344      0.000017
      4.22118      4.02360      4.31541        -0.000341     -0.001344      0.000017
      0.80740      1.57274      4.31541         0.000341      0.001344      0.000017
      1.70689      4.37091      6.02717        -0.000341      0.001344     -0.000017
      3.32168      1.22543      6.02717         0.000341     -0.001344     -0.000017
      1.74590      0.51715      1.44535        -0.000748      0.002394      0.001022
      3.28267      5.07919      1.44535         0.000748     -0.002394      0.001022
      4.26019      2.28102      2.00217        -0.000748     -0.002394     -0.001022
      0.76839      3.31532      2.00217         0.000748      0.002394     -0.001022
      3.28267      5.07919      5.44970         0.000748     -0.002394     -0.001022
      1.74590      0.51715      5.44970        -0.000748      0.002394     -0.001022
      0.76839      3.31532      4.89288         0.000748      0.002394      0.001022
      4.26019      2.28102      4.89288        -0.000748     -0.002394      0.001022
      1.76996      1.51845      0.00000        -0.000188     -0.001089      0.000000
      3.25861      4.07789      0.00000         0.000188      0.001089      0.000000
      4.28425      1.27972      3.44753        -0.000188      0.001089      0.000000
      0.74432      4.31662      3.44753         0.000188     -0.001089      0.000000
      0.82650      0.04538      0.00000         0.001219      0.001330      0.000000
      4.20207      5.55096      0.00000        -0.001219     -0.001330      0.000000
      3.34079      2.75279      3.44753         0.001219     -0.001330      0.000000
      1.68778      2.84355      3.44753        -0.001219      0.001330      0.000000
    total drift:                                0.000000      0.000000      0.000000

  FREE ENERGIE OF THE ION-ELECTRON SYSTEM (eV)
  free  energy   TOTEN  =      -186.740209 eV

  energy  without entropy=     -186.745090  energy(sigma->0) =     -186.741836

 d Force = 0.9397571E-05[ 0.529E-05, 0.135E-04]  d Energy = 0.9472542E-05-0.750E-07
 d Force = 0.6743296E-02[ 0.673E-02, 0.675E-02]  d Ewald  = 0.1822465E-01-0.115E-01

 Conjugate gradient step on ions:
 trial-energy change:   -0.000009  1 .order   -0.000009   -0.000014   -0.000005
  (g-gl).g = 0.115E-04      g.g   = 0.107E-04  gl.gl    = 0.800E-04
 g(Force)  = 0.101E-04   g(Stress)= 0.630E-06 ortho     =-0.585E-07
 gamma     =   0.14364
 trial     =   1.27833
 opt step  =   2.08788  (harmonic =   2.08788) maximal distance =0.00025169
 next E    =  -186.740211   (d E  =  -0.00001)