 vasp.5.2.12 26May11 complex
 executed on             LinuxIFC date 2012.05.25  11:43:34

 INCAR:
 POTCAR:    PAW_PBE B 06Sep2000
 POTCAR:    PAW_PBE B 06Sep2000
   VRHFIN =B: s2p1

   TITEL  = PAW_PBE B 06Sep2000
   POMASS =   10.811; ZVAL   =    3.000    mass and valenz
   ENMAX  =  318.614; ENMIN  =  238.960 eV

 Optimization of the real space projectors (new method)

 maximal supplied QI-value         = 22.11
 optimisation between [QCUT,QGAM] = [  9.07, 18.13] = [ 23.01, 92.04] Ry
 Optimized for a Real-space Cutoff    1.46 Angstroem

   l    n(q)    QCUT    max X(q) W(low)/X(q) W(high)/X(q)  e(spline)
   0      8     9.065    53.033    0.38E-03    0.70E-03    0.20E-06
   0      8     9.065    34.740    0.38E-03    0.69E-03    0.20E-06
   1      7     9.065    30.949    0.34E-03    0.21E-03    0.23E-06
   1      7     9.065    19.518    0.31E-03    0.17E-03    0.22E-06
  PAW_PBE B 06Sep2000                   :

 POSCAR: XYZ: B14
  positions in direct lattice
  velocities in cartesian coordinates
 exchange correlation table for  LEXCH =        8
   RHO(1)=    0.500       N(1)  =     2000
   RHO(2)=  100.500       N(2)  =     4000

 ion  position               nearest neighbor table
   1  0.808  0.301  0.808-  14 1.67   4 1.75   5 1.75   9 1.78   8 1.78  12 1.81
   2  0.808  0.808  0.301-  14 1.67   6 1.75   4 1.75   9 1.78   7 1.78  11 1.81
   3  0.301  0.808  0.808-  14 1.67   6 1.75   5 1.75   7 1.78   8 1.78  10 1.81
   4  0.699  0.192  0.192-  13 1.67   1 1.75   2 1.75  12 1.78  11 1.78   9 1.81
   5  0.192  0.192  0.699-  13 1.67   3 1.75   1 1.75  12 1.78  10 1.78   8 1.81
   6  0.192  0.699  0.192-  13 1.67   3 1.75   2 1.75  10 1.78  11 1.78   7 1.81
   7  0.994  0.668  0.994-  12 1.71   3 1.78   2 1.78   6 1.81   8 1.86   9 1.86
   8  0.994  0.994  0.668-  11 1.71   3 1.78   1 1.78   5 1.81   9 1.86   7 1.86
   9  0.668  0.994  0.994-  10 1.71   1 1.78   2 1.78   4 1.81   8 1.86   7 1.86
  10  0.332  0.006  0.006-   9 1.71   6 1.78   5 1.78   3 1.81  11 1.86  12 1.86
  11  0.006  0.006  0.332-   8 1.71   6 1.78   4 1.78   2 1.81  10 1.86  12 1.86
  12  0.006  0.332  0.006-   7 1.71   4 1.78   5 1.78   1 1.81  11 1.86  10 1.86
  13  0.369  0.369  0.369-   5 1.67   4 1.67   6 1.67
  14  0.631  0.631  0.631-   2 1.67   1 1.67   3 1.67

  LATTYP: Found a trigonal (rhomboedric) cell.
 ALAT       =     5.2292339585
 COS(alpha) =     0.4070707771

  Lattice vectors:

 A1 = (   2.8472427952,   1.6438563942,   4.0664274755)
 A2 = (  -2.8472427952,   1.6438563942,   4.0664274755)
 A3 = (   0.0000000000,  -3.2877127883,   4.0664274755)
 Subroutine PRICEL returns:
 Original cell was already a primitive cell.

Analysis of symmetry for initial positions (statically):

 Routine SETGRP: Setting up the symmetry group for a
 trigonal (rhombohedral) supercell.

 Subroutine GETGRP returns: Found 12 space group operations
 (whereof 12 operations were pure point group operations)
 out of a pool of 12 trial point group operations.

The static configuration has the point symmetry D_3d.

Analysis of symmetry for dynamics (positions and initial velocities):

 Subroutine DYNSYM returns: Found 12 space group operations
 (whereof 12 operations were pure point group operations)
 out of a pool of 12 trial space group operations
 (whereof 12 operations were pure point group operations)
 and found also     1 'primitive' translations

The dynamic configuration has the point symmetry D_3d.

 KPOINTS: Automatic mesh

Automatic generation of k-mesh.

 Subroutine IBZKPT returns following result:

 Found     65 irreducible k-points:

 Following reciprocal coordinates:
            Coordinates               Weight
  0.000000  0.000000  0.000000      1.000000
  0.125000  0.000000  0.000000      6.000000
  0.250000  0.000000  0.000000      6.000000
  0.375000  0.000000  0.000000      6.000000
  0.500000  0.000000  0.000000      3.000000
  0.125000  0.125000  0.000000      6.000000
  0.250000  0.125000  0.000000     12.000000
  0.375000  0.125000  0.000000     12.000000
  0.500000  0.125000  0.000000     12.000000
 -0.375000  0.125000  0.000000     12.000000
 -0.250000  0.125000  0.000000     12.000000
 -0.125000  0.125000  0.000000      6.000000
  0.250000  0.250000  0.000000      6.000000
  0.375000  0.250000  0.000000     12.000000
  0.500000  0.250000  0.000000     12.000000
 -0.375000  0.250000  0.000000     12.000000
 -0.250000  0.250000  0.000000      6.000000
  0.375000  0.375000  0.000000      6.000000
  0.500000  0.375000  0.000000     12.000000
 -0.375000  0.375000  0.000000      6.000000
  0.500000  0.500000  0.000000      3.000000
  0.125000  0.125000  0.125000      2.000000
  0.250000  0.125000  0.125000      6.000000
  0.375000  0.125000  0.125000      6.000000
  0.500000  0.125000  0.125000      6.000000
 -0.375000  0.125000  0.125000      6.000000
 -0.250000  0.125000  0.125000      6.000000
 -0.125000  0.125000  0.125000      6.000000
  0.250000  0.250000  0.125000      6.000000
  0.375000  0.250000  0.125000     12.000000
  0.500000  0.250000  0.125000     12.000000
 -0.375000  0.250000  0.125000     12.000000
 -0.250000  0.250000  0.125000     12.000000
 -0.125000  0.250000  0.125000     12.000000
  0.375000  0.375000  0.125000      6.000000
  0.500000  0.375000  0.125000     12.000000
 -0.375000  0.375000  0.125000     12.000000
 -0.250000  0.375000  0.125000     12.000000
 -0.125000  0.375000  0.125000     12.000000
  0.500000  0.500000  0.125000      6.000000
 -0.375000  0.500000  0.125000     12.000000
 -0.250000  0.500000  0.125000     12.000000
 -0.125000  0.500000  0.125000      6.000000
 -0.375000 -0.375000  0.125000      6.000000
 -0.250000 -0.375000  0.125000     12.000000
 -0.250000 -0.250000  0.125000      6.000000
  0.250000  0.250000  0.250000      2.000000
  0.375000  0.250000  0.250000      6.000000
  0.500000  0.250000  0.250000      6.000000
 -0.375000  0.250000  0.250000      6.000000
 -0.250000  0.250000  0.250000      6.000000
  0.375000  0.375000  0.250000      6.000000
  0.500000  0.375000  0.250000     12.000000
 -0.375000  0.375000  0.250000     12.000000
 -0.250000  0.375000  0.250000     12.000000
  0.500000  0.500000  0.250000      6.000000
 -0.375000  0.500000  0.250000     12.000000
 -0.250000  0.500000  0.250000      6.000000
 -0.375000 -0.375000  0.250000      6.000000
  0.375000  0.375000  0.375000      2.000000
  0.500000  0.375000  0.375000      6.000000
 -0.375000  0.375000  0.375000      6.000000
  0.500000  0.500000  0.375000      6.000000
 -0.375000  0.500000  0.375000      6.000000
  0.500000  0.500000  0.500000      1.000000

 Following cartesian coordinates:
            Coordinates               Weight
  0.000000  0.000000  0.000000      1.000000
  0.021951  0.012673  0.010247      6.000000
  0.043902  0.025347  0.020493      6.000000
  0.065853  0.038020  0.030740      6.000000
  0.087804  0.050694  0.040986      3.000000
  0.000000  0.025347  0.020493      6.000000
  0.021951  0.038020  0.030740     12.000000
  0.043902  0.050694  0.040986     12.000000
  0.065853  0.063367  0.051233     12.000000
 -0.087804 -0.025347 -0.020493     12.000000
 -0.065853 -0.012673 -0.010247     12.000000
 -0.043902  0.000000  0.000000      6.000000
  0.000000  0.050694  0.040986      6.000000
  0.021951  0.063367  0.051233     12.000000
  0.043902  0.076041  0.061479     12.000000
 -0.109755 -0.012673 -0.010247     12.000000
 -0.087804  0.000000  0.000000      6.000000
  0.000000  0.076041  0.061479      6.000000
  0.021951  0.088714  0.071726     12.000000
 -0.131706  0.000000  0.000000      6.000000
  0.000000  0.101388  0.081972      3.000000
  0.000000  0.000000  0.030740      2.000000
  0.021951  0.012673  0.040986      6.000000
  0.043902  0.025347  0.051233      6.000000
  0.065853  0.038020  0.061479      6.000000
 -0.087804 -0.050694 -0.010247      6.000000
 -0.065853 -0.038020  0.000000      6.000000
 -0.043902 -0.025347  0.010247      6.000000
  0.000000  0.025347  0.051233      6.000000
  0.021951  0.038020  0.061479     12.000000
  0.043902  0.050694  0.071726     12.000000
 -0.109755 -0.038020  0.000000     12.000000
 -0.087804 -0.025347  0.010247     12.000000
 -0.065853 -0.012673  0.020493     12.000000
  0.000000  0.050694  0.071726      6.000000
  0.021951  0.063367  0.081972     12.000000
 -0.131706 -0.025347  0.010247     12.000000
 -0.109755 -0.012673  0.020493     12.000000
 -0.087804  0.000000  0.030740     12.000000
  0.000000  0.076041  0.092219      6.000000
 -0.153657 -0.012673  0.020493     12.000000
 -0.131706  0.000000  0.030740     12.000000
 -0.109755  0.012673  0.040986      6.000000
  0.000000 -0.101388 -0.051233      6.000000
  0.021951 -0.088714 -0.040986     12.000000
  0.000000 -0.076041 -0.030740      6.000000
  0.000000  0.000000  0.061479      2.000000
  0.021951  0.012673  0.071726      6.000000
  0.043902  0.025347  0.081972      6.000000
 -0.109755 -0.063367  0.010247      6.000000
 -0.087804 -0.050694  0.020493      6.000000
  0.000000  0.025347  0.081972      6.000000
  0.021951  0.038020  0.092219     12.000000
 -0.131706 -0.050694  0.020493     12.000000
 -0.109755 -0.038020  0.030740     12.000000
  0.000000  0.050694  0.102465      6.000000
 -0.153657 -0.038020  0.030740     12.000000
 -0.131706 -0.025347  0.040986      6.000000
  0.000000 -0.126735 -0.040986      6.000000
  0.000000  0.000000  0.092219      2.000000
  0.021951  0.012673  0.102465      6.000000
 -0.131706 -0.076041  0.030740      6.000000
  0.000000  0.025347  0.112712      6.000000
 -0.153657 -0.063367  0.040986      6.000000
  0.000000  0.000000  0.122958      1.000000

 I would recommend the setting:
   dimension x,y,z NGX =    23 NGY =   23 NGZ =   23
 SYSTEM =  B14
 POSCAR =  XYZ: B14

 Startparameter for this run:
   NWRITE =      2    write-flag & timer
   PREC   = normal    normal or accurate (medium, high low for compatibility)
   ISTART =      0    job   : 0-new  1-cont  2-samecut
   ICHARG =      2    charge: 1-file 2-atom 10-const
   ISPIN  =      1    spin polarized calculation?
   LNONCOLLINEAR =      F non collinear calculations
   LSORBIT =      F    spin-orbit coupling
   INIWAV =      1    electr: 0-lowe 1-rand  2-diag
   LASPH  =      F    aspherical Exc in radial PAW
   METAGGA=      F    non-selfconsistent MetaGGA calc.

 Electronic Relaxation 1
   ENCUT  =  318.6 eV  23.42 Ry    4.84 a.u.   7.61  7.61  7.61*2*pi/ulx,y,z
   ENINI  =  318.6     initial cutoff
   ENAUG  =  535.5 eV  augmentation charge cutoff
   NELM   =     40;   NELMIN=  2; NELMDL=  0     # of ELM steps
   EDIFF  = 0.1E-05   stopping-criterion for ELM
   LREAL  =      T    real-space projection
   LCOMPAT=      F    compatible to vasp.4.4
   GGA_COMPAT  = T    GGA compatible to vasp.4.4-vasp.4.6
   LMAXPAW     = -100 max onsite density
   LMAXMIX     =    2 max onsite mixed and CHGCAR
   VOSKOWN=      0    Vosko Wilk Nusair interpolation
   ROPT   =   -0.00050
 Ionic relaxation
   EDIFFG = 0.1E-04   stopping-criterion for IOM
   NSW    =     10    number of steps for IOM
   NBLOCK =      1;   KBLOCK =     10    inner block; outer block
   IBRION =      2    ionic relax: 0-MD 1-quasi-New 2-CG
   NFREE  =      1    steps in history (QN), initial steepest desc. (CG)
[...]
  Direction    XX          YY          ZZ          XY          YZ          ZX
  Alpha Z   118.07580   118.07580   118.07580
  Ewald    -324.54627  -324.54627  -436.00783     0.00000     0.00000     0.00000
  Hartree    70.25155    70.25155    31.53908     0.00000     0.00000     0.00000
  E(xc)    -135.62500  -135.62500  -136.00363     0.00000     0.00000     0.00000
  Local    -179.00687  -179.00687   -26.61334     0.00000     0.00000     0.00000
  n-local    -9.57596    -8.92969    -7.36855    -1.04049    -0.81405     0.08969
  augment     1.65786     1.65786     1.69612     0.00000     0.00000     0.00000
  Kinetic   461.90344   457.45046   455.13992     3.24249     6.01998    -0.37496
  Fock        0.00000     0.00000     0.00000     0.00000     0.00000     0.00000
  Total       1.23120     1.23120     0.45756     0.00000     0.00000     0.00000
  in kB      17.27375    17.27375     6.41962     0.00000     0.00000     0.00000

 VOLUME and BASIS-vectors are now :
  energy-cutoff  :      318.61
  volume of cell :      114.20
      direct lattice vectors                 reciprocal lattice vectors
     2.847242795  1.643856394  4.066427475     0.175608487  0.101387607  0.081972035
    -2.847242795  1.643856394  4.066427475    -0.175608487  0.101387607  0.081972035
     0.000000000 -3.287712788  4.066427475     0.000000000 -0.202775215  0.081972035

[...]

 FORCES acting on ions
    electron-ion (+dipol)            ewald-force                    non-local-force                 convergence-correction
   0.456E+02 -.264E+02 0.182E+02   -.488E+02 0.282E+02 -.190E+02   0.313E+01 -.181E+01 0.738E+00   0.819E-03 -.473E-03 0.313E-03
   -.259E-12 0.527E+02 0.182E+02   0.694E-13 -.564E+02 -.190E+02   0.000E+00 0.361E+01 0.738E+00   -.427E-14 0.946E-03 0.313E-03
   -.456E+02 -.264E+02 0.182E+02   0.488E+02 0.282E+02 -.190E+02   -.313E+01 -.181E+01 0.738E+00   -.819E-03 -.473E-03 0.313E-03
   0.456E+02 0.264E+02 -.182E+02   -.488E+02 -.282E+02 0.190E+02   0.313E+01 0.181E+01 -.738E+00   0.819E-03 0.473E-03 -.313E-03
   0.281E-12 -.527E+02 -.182E+02   0.720E-13 0.564E+02 0.190E+02   0.139E-16 -.361E+01 -.738E+00   0.410E-14 -.946E-03 -.313E-03
   -.456E+02 0.264E+02 -.182E+02   0.488E+02 -.282E+02 0.190E+02   -.313E+01 0.181E+01 -.738E+00   -.819E-03 0.473E-03 -.313E-03
   -.226E+02 0.131E+02 0.424E+02   0.250E+02 -.145E+02 -.463E+02   -.241E+01 0.139E+01 0.390E+01   -.275E-03 0.159E-03 0.647E-03
   0.226E-12 -.261E+02 0.424E+02   0.974E-14 0.289E+02 -.463E+02   0.347E-17 -.278E+01 0.390E+01   0.245E-14 -.317E-03 0.647E-03
   0.226E+02 0.131E+02 0.424E+02   -.250E+02 -.145E+02 -.463E+02   0.241E+01 0.139E+01 0.390E+01   0.275E-03 0.159E-03 0.647E-03
   -.226E+02 -.131E+02 -.424E+02   0.250E+02 0.145E+02 0.463E+02   -.241E+01 -.139E+01 -.390E+01   -.275E-03 -.159E-03 -.647E-03
   -.184E-12 0.261E+02 -.424E+02   0.106E-14 -.289E+02 0.463E+02   -.173E-17 0.278E+01 -.390E+01   -.156E-14 0.317E-03 -.647E-03
   0.226E+02 -.131E+02 -.424E+02   -.250E+02 0.145E+02 0.463E+02   0.241E+01 -.139E+01 -.390E+01   0.275E-03 -.159E-03 -.647E-03
   -.118E-12 0.180E-06 -.200E+02   0.460E-14 0.101E-07 0.201E+02   -.173E-17 -.958E-12 -.111E+00   0.302E-14 -.138E-11 -.311E-03
   0.137E-12 -.180E-06 0.200E+02   0.940E-15 -.101E-07 -.201E+02   0.000E+00 0.958E-12 0.111E+00   -.306E-14 0.138E-11 0.311E-03
   0.299E-12 0.684E-12 -.100E-11   -.229E-13 0.510E-13 -.355E-14   -.173E-17 -.178E-14 0.874E-15   0.188E-14 0.140E-14 0.648E-14

 POSITION                                       TOTAL-FORCE (eV/Angst)
      1.44275     -0.83297      7.79886        -0.039512      0.022812      0.002958
      0.00000      1.66594      7.79886         0.000000     -0.045625      0.002958
     -1.44275     -0.83297      7.79886         0.039512      0.022812      0.002958
      1.44275      0.83297      4.40043        -0.039512     -0.022812     -0.002958
      0.00000     -1.66594      4.40043         0.000000      0.045625     -0.002958
     -1.44275      0.83297      4.40043         0.039512     -0.022812     -0.002958
      0.92844     -0.53604     10.80415         0.027791     -0.016045      0.046708
      0.00000      1.07207     10.80415         0.000000      0.032090      0.046708
     -0.92844     -0.53604     10.80415        -0.027791     -0.016045      0.046708
      0.92844      0.53604      1.39513         0.027791      0.016045     -0.046708
      0.00000     -1.07207      1.39513         0.000000     -0.032090     -0.046708
     -0.92844      0.53604      1.39513        -0.027791      0.016045     -0.046708
      0.00000      0.00000      4.50493         0.000000      0.000000     -0.046302
      0.00000      0.00000      7.69435         0.000000      0.000000      0.046302
    total drift:                                0.000000      0.000000      0.000000

  FREE ENERGIE OF THE ION-ELECTRON SYSTEM (eV)
  free  energy   TOTEN  =       -91.778956 eV

  energy  without entropy=      -91.781532  energy(sigma->0) =      -91.779814

[...]

 d Force = 0.6629982E-03[ 0.454E-03, 0.872E-03]  d Energy = 0.3997076E-02-0.333E-02
 d Force = 0.1405057E+00[ 0.139E+00, 0.142E+00]  d Ewald  =-0.1577695E+01 0.172E+01

 Steepest descent step on ions:
 trial-energy change:   -0.003997  1 .order   -0.004018   -0.006455   -0.001581
  (g-gl).g = 0.645E-02      g.g   = 0.645E-02  gl.gl    = 0.000E+00
 g(Force)  = 0.871E-03   g(Stress)= 0.558E-02 ortho     = 0.000E+00
 gamma     =   0.00000
 trial     =   1.00000
 opt step  =   1.33570  (harmonic =   1.32427) maximal distance =0.00150488
 next E    =   -91.783217   (d E  =  -0.00426)

[...]

 d Force = 0.2751766E-03[ 0.183E-03, 0.367E-03]  d Energy = 0.2742287E-03 0.948E-06
 d Force =-0.3946203E+00[-0.395E+00,-0.394E+00]  d Ewald  =-0.3808438E+00-0.138E-01

 Conjugate gradient step on ions:
 trial-energy change:   -0.000274  1 .order   -0.000276   -0.000369   -0.000183
  (g-gl).g = 0.396E-03      g.g   = 0.349E-03  gl.gl    = 0.645E-02
 g(Force)  = 0.325E-03   g(Stress)= 0.238E-04 ortho     =-0.473E-04
 gamma     =   0.06136
 trial     =   1.06714
 opt step  =   2.11609  (harmonic =   2.11609) maximal distance =0.00234345
 next E    =   -91.783566   (d E  =  -0.00037)

[...]

 d Force = 0.8274062E-04[-0.144E-04, 0.180E-03]  d Energy = 0.7673991E-04 0.600E-05
 d Force =-0.3891146E+00[-0.390E+00,-0.389E+00]  d Ewald  =-0.3755740E+00-0.135E-01

[...]

 d Force = 0.1434872E-03[ 0.872E-04, 0.200E-03]  d Energy = 0.1716491E-03-0.282E-04
 d Force = 0.2688777E-01[ 0.267E-01, 0.271E-01]  d Ewald  = 0.5233726E-01-0.254E-01

 Conjugate gradient step on ions:
 trial-energy change:   -0.000172  1 .order   -0.000170   -0.000233   -0.000108
  (g-gl).g = 0.201E-03      g.g   = 0.191E-03  gl.gl    = 0.349E-03
 g(Force)  = 0.164E-03   g(Stress)= 0.267E-04 ortho     =-0.152E-04
 gamma     =   0.57541
 trial     =   1.27693
 opt step  =   2.37853  (harmonic =   2.37853) maximal distance =0.00343464
 next E    =   -91.783768   (d E  =  -0.00022)

[...]

 d Force = 0.3597615E-04[-0.325E-05, 0.752E-04]  d Energy = 0.4996714E-04-0.140E-04
 d Force = 0.2290736E-01[ 0.228E-01, 0.230E-01]  d Ewald  = 0.4486083E-01-0.220E-01

[...]

 Conjugate gradient step on ions:
 trial-energy change:   -0.000032  1 .order   -0.000033   -0.000056   -0.000010
  (g-gl).g = 0.661E-05      g.g   = 0.373E-04  gl.gl    = 0.191E-03
 g(Force)  = 0.209E-04   g(Stress)= 0.164E-04 ortho     = 0.435E-05
 gamma     =   0.03458
 trial     =   1.49725
 opt step  =   1.81512  (harmonic =   1.81512) maximal distance =0.00042960
 next E    =   -91.783807   (d E  =  -0.00003)

[...]

 d Force = 0.1948367E-05[ 0.154E-05, 0.236E-05]  d Energy = 0.9697383E-06 0.979E-06
 d Force = 0.8010125E-02[ 0.801E-02, 0.801E-02]  d Ewald  =-0.2100608E-01 0.290E-01

[...]

 eigenvalue-minimisations  :  4360
 total energy-change (2. order) :-0.9847561E-05  (-0.5993017E-04)
 number of electron      41.9999999 magnetization
 augmentation part       -0.2182294 magnetization

[...]

 Broyden mixing:
  rms(total) = 0.40073E-03    rms(broyden)= 0.40056E-03
  rms(prec ) = 0.78999E-03
  weight for this iteration     100.00

 eigenvalues of (default mixing * dielectric matrix)
  average eigenvalue GAMMA=   1.5838
  1.5838

[...]

----------------------------------------- Iteration   10(   3)  ---------------------------------------

 eigenvalue-minimisations  :  3440
 total energy-change (2. order) : 0.1655285E-06  (-0.1182374E-06)
 number of electron      41.9999999 magnetization
 augmentation part       -0.2181904 magnetization

 Free energy of the ion-electron system (eV)
  alpha Z        PSCENC =       117.28018449
  Ewald energy   TEWEN  =     -1082.12147442
  -1/2 Hartree   DENC   =      -172.61502585
  -exchange  EXHF       =         0.00000000
  -V(xc)+E(xc)   XCENC  =       102.39311282
  PAW double counting   =      3842.63870923    -3831.79418309
  entropy T*S    EENTRO =         0.00315277
  eigenvalues    EBANDS =       -63.85254145
  atomic energy  EATOM  =       996.28425056
  free energy    TOTEN  =       -91.78381493 eV

  energy without entropy =      -91.78696770  energy(sigma->0) =      -91.78486585

 average (electrostatic) potential at core
  the test charge radii are     0.7672
  (the norm of the test charge is              1.0000)
       1 -27.2886       2 -27.2886       3 -27.2886       4 -27.2886       5 -27.2886
       6 -27.2886       7 -27.4291       8 -27.4291       9 -27.4291      10 -27.4291
      11 -27.4291      12 -27.4291      13 -27.5622      14 -27.5622

 E-fermi :   3.5343     XC(G=0): -10.8785     alpha+bet :-13.5152

[...]

 k-point  65 :       0.5000    0.5000    0.5000
  band No.  band energies     occupation
      1     -10.3955      2.00000
      2      -7.4407      2.00000
      3      -6.4835      2.00000
      4      -6.4835      2.00000
      5      -4.9480      2.00000
      6      -3.6622      2.00000
      7      -3.6622      2.00000
      8      -3.0582      2.00000
      9      -1.5782      2.00000
     10      -1.5782      2.00000
     11      -0.6183      2.00000
     12       0.3720      2.00000
     13       0.6214      2.00000
     14       0.6214      2.00000
     15       2.0378      2.00000
     16       2.0378      2.00000
     17       2.5747      2.00000
     18       2.6093      2.00000
     19       2.8124      2.00000
     20       2.8124      2.00000
     21       3.9902     -0.00585
     22       3.9902     -0.00585
     23       6.4161      0.00000
     24       6.6698      0.00000
     25       8.0538      0.00000
     26       8.3768      0.00000
     27       8.3768      0.00000
     28       9.4450      0.00000
     29      10.2209      0.00000
     30      11.8127      0.00000
     31      11.8127      0.00000
     32      12.6487      0.00000

 soft charge-density along one line, spin component           1
         0         1         2         3         4         5         6         7         8         9
 total charge-density along one line

------------------------ aborting loop because EDIFF is reached ----------------------------------------

  FORCE on cell =-STRESS in cart. coord.  units (eV):
  Direction    XX          YY          ZZ          XY          YZ          ZX
  Alpha Z   117.28018   117.28018   117.28018
  Ewald    -323.38688  -323.38688  -435.35013     0.00000     0.00000     0.00000
  Hartree    70.82320    70.82320    30.96527     0.00000     0.00000     0.00000
  E(xc)    -135.40283  -135.40283  -135.79191     0.00000     0.00000     0.00000
  Local    -180.11369  -180.11369   -25.91305     0.00000     0.00000     0.00000
  n-local    -9.33196    -8.67124    -7.22596    -1.02611    -0.82608     0.09169
  augment     1.67555     1.67555     1.71084     0.00000     0.00000     0.00000
  Kinetic   460.38588   455.86436   454.30352     3.19044     6.09572    -0.39414
  Fock        0.00000     0.00000     0.00000     0.00000     0.00000     0.00000
  Total      -0.00094    -0.00094    -0.02124     0.00000     0.00000     0.00000
  in kB      -0.01317    -0.01317    -0.29597     0.00000     0.00000     0.00000

 VOLUME and BASIS-vectors are now :
  energy-cutoff  :      318.61
  volume of cell :      114.97
      direct lattice vectors                 reciprocal lattice vectors
     2.854581851  1.648093600  4.072989540     0.175157002  0.101126942  0.081839968
    -2.854581851  1.648093600  4.072989540    -0.175157002  0.101126942  0.081839968
     0.000000000 -3.296187200  4.072989540     0.000000000 -0.202253885  0.081839968

  length of vectors
     5.239665433  5.239665433  5.239665432     0.218184359  0.218184359  0.218184359

 FORCES acting on ions
    electron-ion (+dipol)            ewald-force                    non-local-force                 convergence-correction
   0.454E+02 -.262E+02 0.185E+02   -.486E+02 0.280E+02 -.193E+02   0.314E+01 -.181E+01 0.730E+00   0.553E-03 -.319E-03 0.124E-03
   0.436E-12 0.524E+02 0.185E+02   0.470E-16 -.561E+02 -.193E+02   0.139E-16 0.363E+01 0.730E+00   -.105E-12 0.639E-03 0.124E-03
   -.454E+02 -.262E+02 0.185E+02   0.486E+02 0.280E+02 -.193E+02   -.314E+01 -.181E+01 0.730E+00   -.553E-03 -.319E-03 0.124E-03
   0.454E+02 0.262E+02 -.185E+02   -.486E+02 -.280E+02 0.193E+02   0.314E+01 0.181E+01 -.730E+00   0.553E-03 0.319E-03 -.124E-03
   -.152E-12 -.524E+02 -.185E+02   -.389E-15 0.561E+02 0.193E+02   -.627E-19 -.363E+01 -.730E+00   0.311E-13 -.639E-03 -.124E-03
   -.454E+02 0.262E+02 -.185E+02   0.486E+02 -.280E+02 0.193E+02   -.314E+01 0.181E+01 -.730E+00   -.553E-03 0.319E-03 -.124E-03
   -.224E+02 0.129E+02 0.425E+02   0.248E+02 -.143E+02 -.464E+02   -.241E+01 0.139E+01 0.382E+01   0.227E-03 -.131E-03 0.239E-03
   -.320E-12 -.258E+02 0.425E+02   -.112E-14 0.286E+02 -.464E+02   0.782E-18 -.278E+01 0.382E+01   0.111E-12 0.262E-03 0.239E-03
   0.224E+02 0.129E+02 0.425E+02   -.248E+02 -.143E+02 -.464E+02   0.241E+01 0.139E+01 0.382E+01   -.227E-03 -.131E-03 0.239E-03
   -.224E+02 -.129E+02 -.425E+02   0.248E+02 0.143E+02 0.464E+02   -.241E+01 -.139E+01 -.382E+01   0.227E-03 0.131E-03 -.239E-03
   0.171E-12 0.258E+02 -.425E+02   0.784E-15 -.286E+02 0.464E+02   -.782E-18 0.278E+01 -.382E+01   0.332E-13 -.262E-03 -.239E-03
   0.224E+02 -.129E+02 -.425E+02   -.248E+02 0.143E+02 0.464E+02   0.241E+01 -.139E+01 -.382E+01   -.227E-03 0.131E-03 -.239E-03
   0.220E-12 0.155E-06 -.197E+02   -.106E-13 0.102E-07 0.199E+02   0.781E-17 -.161E-11 -.187E+00   0.487E-13 -.122E-12 0.836E-04
   -.111E-12 -.155E-06 0.197E+02   -.117E-13 -.102E-07 -.199E+02   -.521E-17 0.161E-11 0.187E+00   -.834E-13 0.102E-12 -.836E-04
   0.950E-13 -.224E-12 0.354E-12   0.417E-13 -.661E-13 0.355E-13   0.447E-15 -.893E-15 0.444E-15   -.272E-13 0.147E-13 0.231E-12

 POSITION                                       TOTAL-FORCE (eV/Angst)
      1.44529     -0.83444      7.81261        -0.000830      0.000479      0.000700
      0.00000      1.66888      7.81261         0.000000     -0.000958      0.000700
     -1.44529     -0.83444      7.81261         0.000830      0.000479      0.000700
      1.44529      0.83444      4.40636        -0.000830     -0.000479     -0.000700
      0.00000     -1.66888      4.40636         0.000000      0.000958     -0.000700
     -1.44529      0.83444      4.40636         0.000830     -0.000479     -0.000700
      0.93275     -0.53853     10.82515        -0.000353      0.000204     -0.001098
      0.00000      1.07705     10.82515         0.000000     -0.000408     -0.001098
     -0.93275     -0.53853     10.82515         0.000353      0.000204     -0.001098
      0.93275      0.53853      1.39382        -0.000353     -0.000204      0.001098
      0.00000     -1.07705      1.39382         0.000000      0.000408      0.001098
     -0.93275      0.53853      1.39382         0.000353     -0.000204      0.001098
      0.00000      0.00000      4.50418         0.000000      0.000000     -0.004568
      0.00000      0.00000      7.71479         0.000000      0.000000      0.004568
    total drift:                                0.000000      0.000000      0.000000

  FREE ENERGIE OF THE ION-ELECTRON SYSTEM (eV)
  free  energy   TOTEN  =       -91.783815 eV

  energy  without entropy=      -91.786968  energy(sigma->0) =      -91.784866

 d Force = 0.8607290E-05[ 0.302E-05, 0.142E-04]  d Energy = 0.8764455E-05-0.157E-06
 d Force =-0.1030839E+00[-0.103E+00,-0.103E+00]  d Ewald  =-0.9072667E-01-0.124E-01

 Conjugate gradient step on ions:
 trial-energy change:   -0.000009  1 .order   -0.000009   -0.000015   -0.000003
  (g-gl).g = 0.820E-05      g.g   = 0.917E-05  gl.gl    = 0.373E-04
 g(Force)  = 0.803E-05   g(Stress)= 0.114E-05 ortho     = 0.111E-05
 gamma     =   0.21978
 trial     =   1.56082
 opt step  =   1.94232  (harmonic =   1.94232) maximal distance =0.00039165
 next E    =   -91.783815   (d E  =  -0.00001)