 vasp.5.2.12 26May11 complex
 executed on             LinuxIFC date 2012.05.25  11:41:42

 INCAR:
 POTCAR:    PAW_PBE B 06Sep2000
 POTCAR:    PAW_PBE B 06Sep2000
   VRHFIN =B: s2p1

   TITEL  = PAW_PBE B 06Sep2000
   POMASS =   10.811; ZVAL   =    3.000    mass and valenz
   ENMAX  =  318.614; ENMIN  =  238.960 eV

 Optimization of the real space projectors (new method)

 maximal supplied QI-value         = 22.11
 optimisation between [QCUT,QGAM] = [  9.07, 18.13] = [ 23.01, 92.04] Ry
 Optimized for a Real-space Cutoff    1.46 Angstroem

   l    n(q)    QCUT    max X(q) W(low)/X(q) W(high)/X(q)  e(spline)
   0      8     9.065    53.033    0.38E-03    0.70E-03    0.20E-06
   0      8     9.065    34.740    0.38E-03    0.69E-03    0.20E-06
   1      7     9.065    30.949    0.34E-03    0.21E-03    0.23E-06
   1      7     9.065    19.518    0.31E-03    0.17E-03    0.22E-06
  PAW_PBE B 06Sep2000                   :

 POSCAR: XYZ: B15
  positions in direct lattice
  velocities in cartesian coordinates
 exchange correlation table for  LEXCH =        8
   RHO(1)=    0.500       N(1)  =     2000
   RHO(2)=  100.500       N(2)  =     4000

 ion  position               nearest neighbor table
   1  0.500  0.500  0.500-   3 1.62   2 1.62
   2  0.635  0.635  0.635-   1 1.62   5 1.69   4 1.69   6 1.69
   3  0.365  0.365  0.365-   1 1.62   8 1.69   7 1.69   9 1.69
   4  0.806  0.301  0.806-   2 1.69  13 1.78  14 1.78   7 1.79   8 1.79  10 1.80
   5  0.806  0.806  0.301-   2 1.69  13 1.78  15 1.78   7 1.79   9 1.79  11 1.80
   6  0.301  0.806  0.806-   2 1.69  15 1.78  14 1.78   9 1.79   8 1.79  12 1.80
   7  0.699  0.194  0.194-   3 1.69  10 1.78  11 1.78   4 1.79   5 1.79  13 1.80
   8  0.194  0.194  0.699-   3 1.69  10 1.78  12 1.78   4 1.79   6 1.79  14 1.80
   9  0.194  0.699  0.194-   3 1.69  12 1.78  11 1.78   6 1.79   5 1.79  15 1.80
  10  0.006  0.331  0.006-  15 1.72   7 1.78   8 1.78   4 1.80  11 1.88  12 1.88
  11  0.006  0.006  0.331-  14 1.72   9 1.78   7 1.78   5 1.80  12 1.88  10 1.88
  12  0.331  0.006  0.006-  13 1.72   9 1.78   8 1.78   6 1.80  11 1.88  10 1.88
  13  0.669  0.994  0.994-  12 1.72   4 1.78   5 1.78   7 1.80  14 1.88  15 1.88
  14  0.994  0.994  0.669-  11 1.72   6 1.78   4 1.78   8 1.80  13 1.88  15 1.88
  15  0.994  0.669  0.994-  10 1.72   6 1.78   5 1.78   9 1.80  14 1.88  13 1.88

  LATTYP: Found a trigonal (rhomboedric) cell.
 ALAT       =     5.1982646629
 COS(alpha) =     0.3805786170

  Lattice vectors:

 A1 = (   2.8929204145,   1.6702283800,   3.9828763650)
 A2 = (  -2.8929204145,   1.6702283800,   3.9828763650)
 A3 = (   0.0000000000,  -3.3404567600,   3.9828763650)
 Subroutine PRICEL returns:
 Original cell was already a primitive cell.

Analysis of symmetry for initial positions (statically):

 Routine SETGRP: Setting up the symmetry group for a
 trigonal (rhombohedral) supercell.

 Subroutine GETGRP returns: Found 12 space group operations
 (whereof 12 operations were pure point group operations)
 out of a pool of 12 trial point group operations.

The static configuration has the point symmetry D_3d.

Analysis of symmetry for dynamics (positions and initial velocities):

 Subroutine DYNSYM returns: Found 12 space group operations
 (whereof 12 operations were pure point group operations)
 out of a pool of 12 trial space group operations
 (whereof 12 operations were pure point group operations)
 and found also     1 'primitive' translations

The dynamic configuration has the point symmetry D_3d.

 KPOINTS: Automatic mesh

Automatic generation of k-mesh.

 Subroutine IBZKPT returns following result:

 Found     65 irreducible k-points:

 Following reciprocal coordinates:
            Coordinates               Weight
  0.000000  0.000000  0.000000      1.000000
  0.125000  0.000000  0.000000      6.000000
  0.250000  0.000000  0.000000      6.000000
  0.375000  0.000000  0.000000      6.000000
  0.500000  0.000000  0.000000      3.000000
  0.125000  0.125000  0.000000      6.000000
  0.250000  0.125000  0.000000     12.000000
  0.375000  0.125000  0.000000     12.000000
  0.500000  0.125000  0.000000     12.000000
 -0.375000  0.125000  0.000000     12.000000
 -0.250000  0.125000  0.000000     12.000000
 -0.125000  0.125000  0.000000      6.000000
  0.250000  0.250000  0.000000      6.000000
  0.375000  0.250000  0.000000     12.000000
  0.500000  0.250000  0.000000     12.000000
 -0.375000  0.250000  0.000000     12.000000
 -0.250000  0.250000  0.000000      6.000000
  0.375000  0.375000  0.000000      6.000000
  0.500000  0.375000  0.000000     12.000000
 -0.375000  0.375000  0.000000      6.000000
  0.500000  0.500000  0.000000      3.000000
  0.125000  0.125000  0.125000      2.000000
  0.250000  0.125000  0.125000      6.000000
  0.375000  0.125000  0.125000      6.000000
  0.500000  0.125000  0.125000      6.000000
 -0.375000  0.125000  0.125000      6.000000
 -0.250000  0.125000  0.125000      6.000000
 -0.125000  0.125000  0.125000      6.000000
  0.250000  0.250000  0.125000      6.000000
  0.375000  0.250000  0.125000     12.000000
  0.500000  0.250000  0.125000     12.000000
 -0.375000  0.250000  0.125000     12.000000
 -0.250000  0.250000  0.125000     12.000000
 -0.125000  0.250000  0.125000     12.000000
  0.375000  0.375000  0.125000      6.000000
  0.500000  0.375000  0.125000     12.000000
 -0.375000  0.375000  0.125000     12.000000
 -0.250000  0.375000  0.125000     12.000000
 -0.125000  0.375000  0.125000     12.000000
  0.500000  0.500000  0.125000      6.000000
 -0.375000  0.500000  0.125000     12.000000
 -0.250000  0.500000  0.125000     12.000000
 -0.125000  0.500000  0.125000      6.000000
 -0.375000 -0.375000  0.125000      6.000000
 -0.250000 -0.375000  0.125000     12.000000
 -0.250000 -0.250000  0.125000      6.000000
  0.250000  0.250000  0.250000      2.000000
  0.375000  0.250000  0.250000      6.000000
  0.500000  0.250000  0.250000      6.000000
 -0.375000  0.250000  0.250000      6.000000
 -0.250000  0.250000  0.250000      6.000000
  0.375000  0.375000  0.250000      6.000000
  0.500000  0.375000  0.250000     12.000000
 -0.375000  0.375000  0.250000     12.000000
 -0.250000  0.375000  0.250000     12.000000
  0.500000  0.500000  0.250000      6.000000
 -0.375000  0.500000  0.250000     12.000000
 -0.250000  0.500000  0.250000      6.000000
 -0.375000 -0.375000  0.250000      6.000000
  0.375000  0.375000  0.375000      2.000000
  0.500000  0.375000  0.375000      6.000000
 -0.375000  0.375000  0.375000      6.000000
  0.500000  0.500000  0.375000      6.000000
 -0.375000  0.500000  0.375000      6.000000
  0.500000  0.500000  0.500000      1.000000

 Following cartesian coordinates:
            Coordinates               Weight
  0.000000  0.000000  0.000000      1.000000
  0.021604  0.012473  0.010461      6.000000
  0.043209  0.024947  0.020923      6.000000
  0.064813  0.037420  0.031384      6.000000
  0.086418  0.049893  0.041846      3.000000
  0.000000  0.024947  0.020923      6.000000
  0.021604  0.037420  0.031384     12.000000
  0.043209  0.049893  0.041846     12.000000
  0.064813  0.062367  0.052307     12.000000
 -0.086418 -0.024947 -0.020923     12.000000
 -0.064813 -0.012473 -0.010461     12.000000
 -0.043209  0.000000  0.000000      6.000000
  0.000000  0.049893  0.041846      6.000000
  0.021604  0.062367  0.052307     12.000000
  0.043209  0.074840  0.062769     12.000000
 -0.108022 -0.012473 -0.010461     12.000000
 -0.086418  0.000000  0.000000      6.000000
  0.000000  0.074840  0.062769      6.000000
  0.021604  0.087313  0.073230     12.000000
 -0.129627  0.000000  0.000000      6.000000
  0.000000  0.099787  0.083692      3.000000
  0.000000  0.000000  0.031384      2.000000
  0.021604  0.012473  0.041846      6.000000
  0.043209  0.024947  0.052307      6.000000
  0.064813  0.037420  0.062769      6.000000
 -0.086418 -0.049893 -0.010461      6.000000
 -0.064813 -0.037420  0.000000      6.000000
 -0.043209 -0.024947  0.010461      6.000000
  0.000000  0.024947  0.052307      6.000000
  0.021604  0.037420  0.062769     12.000000
  0.043209  0.049893  0.073230     12.000000
 -0.108022 -0.037420  0.000000     12.000000
 -0.086418 -0.024947  0.010461     12.000000
 -0.064813 -0.012473  0.020923     12.000000
  0.000000  0.049893  0.073230      6.000000
  0.021604  0.062367  0.083692     12.000000
 -0.129627 -0.024947  0.010461     12.000000
 -0.108022 -0.012473  0.020923     12.000000
 -0.086418  0.000000  0.031384     12.000000
  0.000000  0.074840  0.094153      6.000000
 -0.151231 -0.012473  0.020923     12.000000
 -0.129627  0.000000  0.031384     12.000000
 -0.108022  0.012473  0.041846      6.000000
  0.000000 -0.099787 -0.052307      6.000000
  0.021604 -0.087313 -0.041846     12.000000
  0.000000 -0.074840 -0.031384      6.000000
  0.000000  0.000000  0.062769      2.000000
  0.021604  0.012473  0.073230      6.000000
  0.043209  0.024947  0.083692      6.000000
 -0.108022 -0.062367  0.010461      6.000000
 -0.086418 -0.049893  0.020923      6.000000
  0.000000  0.024947  0.083692      6.000000
  0.021604  0.037420  0.094153     12.000000
 -0.129627 -0.049893  0.020923     12.000000
 -0.108022 -0.037420  0.031384     12.000000
  0.000000  0.049893  0.104615      6.000000
 -0.151231 -0.037420  0.031384     12.000000
 -0.129627 -0.024947  0.041846      6.000000
  0.000000 -0.124733 -0.041846      6.000000
  0.000000  0.000000  0.094153      2.000000
  0.021604  0.012473  0.104615      6.000000
 -0.129627 -0.074840  0.031384      6.000000
  0.000000  0.024947  0.115076      6.000000
 -0.151231 -0.062367  0.041846      6.000000
  0.000000  0.000000  0.125537      1.000000

 I would recommend the setting:
   dimension x,y,z NGX =    23 NGY =   23 NGZ =   23
 SYSTEM =  B15
 POSCAR =  XYZ: B15

 Startparameter for this run:
   NWRITE =      2    write-flag & timer
   PREC   = normal    normal or accurate (medium, high low for compatibility)
   ISTART =      0    job   : 0-new  1-cont  2-samecut
   ICHARG =      2    charge: 1-file 2-atom 10-const
   ISPIN  =      1    spin polarized calculation?
   LNONCOLLINEAR =      F non collinear calculations
   LSORBIT =      F    spin-orbit coupling
   INIWAV =      1    electr: 0-lowe 1-rand  2-diag
   LASPH  =      F    aspherical Exc in radial PAW
   METAGGA=      F    non-selfconsistent MetaGGA calc.

 Electronic Relaxation 1
   ENCUT  =  318.6 eV  23.42 Ry    4.84 a.u.   7.57  7.57  7.57*2*pi/ulx,y,z
   ENINI  =  318.6     initial cutoff
   ENAUG  =  535.5 eV  augmentation charge cutoff
   NELM   =     40;   NELMIN=  2; NELMDL=  0     # of ELM steps
   EDIFF  = 0.1E-05   stopping-criterion for ELM
   LREAL  =      T    real-space projection
   LCOMPAT=      F    compatible to vasp.4.4
   GGA_COMPAT  = T    GGA compatible to vasp.4.4-vasp.4.6
   LMAXPAW     = -100 max onsite density
   LMAXMIX     =    2 max onsite mixed and CHGCAR
   VOSKOWN=      0    Vosko Wilk Nusair interpolation
   ROPT   =   -0.00050
 Ionic relaxation
   EDIFFG = 0.1E-04   stopping-criterion for IOM
   NSW    =     10    number of steps for IOM
   NBLOCK =      1;   KBLOCK =     10    inner block; outer block
   IBRION =      2    ionic relax: 0-MD 1-quasi-New 2-CG
[...]
       6 -26.7714       7 -26.7714       8 -26.7714       9 -26.7714      10 -26.7984
      11 -26.7984      12 -26.7984      13 -26.7984      14 -26.7984      15 -26.7984

[...]

 soft charge-density along one line, spin component           1
         0         1         2         3         4         5         6         7         8         9
 total charge-density along one line

------------------------ aborting loop because EDIFF is reached ----------------------------------------

  FORCE on cell =-STRESS in cart. coord.  units (eV):
  Direction    XX          YY          ZZ          XY          YZ          ZX
  Alpha Z   134.05394   134.05394   134.05394
  Ewald    -415.31066  -415.31066  -412.81675     0.00000     0.00000     0.00000
  Hartree    50.77439    50.77439    32.62228     0.00000     0.00000     0.00000
  E(xc)    -145.43436  -145.43436  -145.36412     0.00000     0.00000     0.00000
  Local    -110.33165  -110.33165   -83.88041     0.00000     0.00000     0.00000
  n-local   -10.61880    -9.62838    -8.39497    -0.03775    -1.03627    -0.03161
  augment     1.74458     1.74458     1.82105     0.00000     0.00000     0.00000
  Kinetic   499.00939   491.35460   482.36580    -0.69690     7.58489     0.59607
  Fock        0.00000     0.00000     0.00000     0.00000     0.00000     0.00000
  Total       0.55464     0.55464     0.40683     0.00000     0.00000     0.00000
  in kB       7.69599     7.69599     5.64494     0.00000     0.00000     0.00000

 VOLUME and BASIS-vectors are now :
  energy-cutoff  :      318.61
  volume of cell :      115.47
      direct lattice vectors                 reciprocal lattice vectors
     2.892920415  1.670228380  3.982876365     0.172835726  0.099786753  0.083691609
    -2.892920415  1.670228380  3.982876365    -0.172835726  0.099786753  0.083691609
     0.000000000 -3.340456760  3.982876365     0.000000000 -0.199573506  0.083691609

[...]

 FORCES acting on ions
    electron-ion (+dipol)            ewald-force                    non-local-force                 convergence-correction
   -.314E-12 -.233E-13 -.157E-12   0.389E-15 -.131E-13 -.309E-13   0.000E+00 -.165E-23 0.331E-23   -.352E-14 0.857E-15 0.197E-15
   -.337E-12 0.231E-07 -.243E+02   0.377E-14 -.507E-08 0.246E+02   -.694E-17 -.322E-11 -.378E+00   -.468E-14 0.975E-12 -.136E-03
   0.255E-12 -.231E-07 0.243E+02   -.122E-14 0.507E-08 -.246E+02   0.000E+00 0.322E-11 0.378E+00   0.426E-16 -.973E-12 0.136E-03
   0.369E+02 -.213E+02 0.120E+02   -.392E+02 0.227E+02 -.120E+02   0.236E+01 -.136E+01 -.214E-01   0.696E-04 -.402E-04 -.141E-03
   0.192E-14 0.426E+02 0.120E+02   0.566E-14 -.453E+02 -.120E+02   0.000E+00 0.273E+01 -.214E-01   -.172E-15 0.804E-04 -.141E-03
   -.369E+02 -.213E+02 0.120E+02   0.392E+02 0.227E+02 -.120E+02   -.236E+01 -.136E+01 -.214E-01   -.696E-04 -.402E-04 -.141E-03
   0.369E+02 0.213E+02 -.120E+02   -.392E+02 -.227E+02 0.120E+02   0.236E+01 0.136E+01 0.214E-01   0.696E-04 0.402E-04 0.141E-03
   0.409E-13 -.426E+02 -.120E+02   0.916E-14 0.453E+02 0.120E+02   0.000E+00 -.273E+01 0.214E-01   0.195E-14 -.804E-04 0.141E-03
   -.369E+02 0.213E+02 -.120E+02   0.392E+02 -.227E+02 0.120E+02   -.236E+01 0.136E+01 0.214E-01   -.696E-04 0.402E-04 0.141E-03
   0.179E+02 -.103E+02 -.399E+02   -.204E+02 0.118E+02 0.436E+02   0.251E+01 -.145E+01 -.358E+01   -.456E-04 0.263E-04 0.185E-03
   -.303E-12 0.207E+02 -.399E+02   -.427E-14 -.236E+02 0.436E+02   0.173E-17 0.290E+01 -.358E+01   0.763E-14 -.527E-04 0.185E-03
   -.179E+02 -.103E+02 -.399E+02   0.204E+02 0.118E+02 0.436E+02   -.251E+01 -.145E+01 -.358E+01   0.456E-04 0.263E-04 0.185E-03
   0.179E+02 0.103E+02 0.399E+02   -.204E+02 -.118E+02 -.436E+02   0.251E+01 0.145E+01 0.358E+01   -.456E-04 -.263E-04 -.185E-03
   0.196E-12 -.207E+02 0.399E+02   -.577E-14 0.236E+02 -.436E+02   0.173E-17 -.290E+01 0.358E+01   0.965E-15 0.527E-04 -.185E-03
   -.179E+02 0.103E+02 0.399E+02   0.204E+02 -.118E+02 -.436E+02   -.251E+01 0.145E+01 0.358E+01   0.456E-04 -.263E-04 -.185E-03
   -.901E-12 -.180E-11 -.630E-11   -.249E-13 0.533E-14 -.711E-14   -.888E-15 -.133E-14 0.178E-14   0.424E-14 -.342E-14 0.862E-14

 POSITION                                       TOTAL-FORCE (eV/Angst)
      0.00000      0.00000      5.97431         0.000000      0.000000      0.000000
      0.00000      0.00000      7.59012         0.000000      0.000000     -0.048944
      0.00000      0.00000      4.35851         0.000000      0.000000      0.048944
      1.46005     -0.84296      7.62190         0.023307     -0.013456      0.026108
      0.00000      1.68592      7.62190         0.000000      0.026912      0.026108
     -1.46005     -0.84296      7.62190        -0.023307     -0.013456      0.026108
      1.46005      0.84296      4.32673         0.023307      0.013456     -0.026108
      0.00000     -1.68592      4.32673         0.000000     -0.026912     -0.026108
     -1.46005      0.84296      4.32673        -0.023307      0.013456     -0.026108
     -0.94112      0.54335      1.36228         0.011834     -0.006833      0.053253
      0.00000     -1.08671      1.36228         0.000000      0.013665      0.053253
      0.94112      0.54335      1.36228        -0.011834     -0.006833      0.053253
     -0.94112     -0.54335     10.58635         0.011834      0.006833     -0.053253
      0.00000      1.08671     10.58635         0.000000     -0.013665     -0.053253
      0.94112     -0.54335     10.58635        -0.011834      0.006833     -0.053253
    total drift:                                0.000000      0.000000      0.000000

  FREE ENERGIE OF THE ION-ELECTRON SYSTEM (eV)
  free  energy   TOTEN  =       -97.209225 eV

  energy  without entropy=      -97.208207  energy(sigma->0) =      -97.208886

[...]

 d Force = 0.6077952E-03[ 0.459E-03, 0.757E-03]  d Energy = 0.1390395E-02-0.783E-03
 d Force = 0.8891965E-02[ 0.846E-02, 0.932E-02]  d Ewald  =-0.1001238E+01 0.101E+01

 Steepest descent step on ions:
 trial-energy change:   -0.001390  1 .order   -0.001393   -0.002012   -0.000775
  (g-gl).g = 0.201E-02      g.g   = 0.201E-02  gl.gl    = 0.000E+00
 g(Force)  = 0.757E-03   g(Stress)= 0.126E-02 ortho     = 0.000E+00
 gamma     =   0.00000
 trial     =   1.00000
 opt step  =   1.62625  (harmonic =   1.62625) maximal distance =0.00208898
 next E    =   -97.210861   (d E  =  -0.00164)

[...]

 d Force = 0.2277345E-03[ 0.168E-03, 0.287E-03]  d Energy = 0.2385027E-03-0.108E-04
 d Force = 0.5142880E-02[ 0.497E-02, 0.531E-02]  d Ewald  =-0.6266893E+00 0.632E+00

[...]

 d Force = 0.2510860E-03[ 0.143E-03, 0.359E-03]  d Energy = 0.2806941E-03-0.296E-04
 d Force =-0.3369466E+00[-0.338E+00,-0.336E+00]  d Ewald  =-0.3040994E+00-0.328E-01

 Conjugate gradient step on ions:
 trial-energy change:   -0.000281  1 .order   -0.000280   -0.000390   -0.000169
  (g-gl).g = 0.360E-03      g.g   = 0.349E-03  gl.gl    = 0.201E-02
 g(Force)  = 0.271E-03   g(Stress)= 0.781E-04 ortho     =-0.109E-04
 gamma     =   0.17887
 trial     =   1.12525
 opt step  =   1.98814  (harmonic =   1.98814) maximal distance =0.00169877
 next E    =   -97.211199   (d E  =  -0.00034)

[...]

 d Force = 0.4542143E-04[-0.190E-04, 0.110E-03]  d Energy = 0.6417892E-04-0.188E-04
 d Force =-0.2593210E+00[-0.260E+00,-0.259E+00]  d Ewald  =-0.2341262E+00-0.252E-01

[...]

 d Force = 0.4661890E-04[ 0.233E-04, 0.700E-04]  d Energy = 0.5826939E-04-0.117E-04
 d Force = 0.1328709E+00[ 0.133E+00, 0.133E+00]  d Ewald  = 0.1916088E+00-0.587E-01

 Conjugate gradient step on ions:
 trial-energy change:   -0.000058  1 .order   -0.000063   -0.000103   -0.000022
  (g-gl).g = 0.805E-04      g.g   = 0.801E-04  gl.gl    = 0.349E-03
 g(Force)  = 0.590E-04   g(Stress)= 0.211E-04 ortho     =-0.250E-05
 gamma     =   0.23070
 trial     =   1.29783
 opt step  =   1.97000  (harmonic =   1.64801) maximal distance =0.00081384
 next E    =   -97.211262   (d E  =  -0.00006)

[...]

 eigenvalue-minimisations  :  4568
 total energy-change (2. order) :-0.4125217E-05  (-0.8788837E-04)
 number of electron      45.0000005 magnetization
 augmentation part       -0.2310571 magnetization

[...]

 Broyden mixing:
  rms(total) = 0.62337E-03    rms(broyden)= 0.62329E-03
  rms(prec ) = 0.13349E-02
  weight for this iteration     100.00

 eigenvalues of (default mixing * dielectric matrix)
  average eigenvalue GAMMA=   1.6165
  1.6165

[...]

----------------------------------------- Iteration    7(   3)  ---------------------------------------

 eigenvalue-minimisations  :  4520
 total energy-change (2. order) : 0.9932805E-06  (-0.3144443E-06)
 number of electron      45.0000005 magnetization
 augmentation part       -0.2310896 magnetization

 Free energy of the ion-electron system (eV)
  alpha Z        PSCENC =       133.57061869
  Ewald energy   TEWEN  =     -1241.55971987
  -1/2 Hartree   DENC   =      -134.53406635
  -exchange  EXHF       =         0.00000000
  -V(xc)+E(xc)   XCENC  =       110.10934396
  PAW double counting   =      4086.24585232    -4074.59601981
  entropy T*S    EENTRO =        -0.00008544
  eigenvalues    EBANDS =       -43.89459090
  atomic energy  EATOM  =      1067.44741131
  free energy    TOTEN  =       -97.21125608 eV

  energy without entropy =      -97.21117064  energy(sigma->0) =      -97.21122760

 average (electrostatic) potential at core
  the test charge radii are     0.7672
  (the norm of the test charge is              1.0000)
       1 -28.9796       2 -26.2034       3 -26.2034       4 -26.8133       5 -26.8133
       6 -26.8133       7 -26.8133       8 -26.8133       9 -26.8133      10 -26.8335
      11 -26.8335      12 -26.8335      13 -26.8335      14 -26.8335      15 -26.8335

 E-fermi :   4.2894     XC(G=0): -11.2808     alpha+bet :-14.3663

[...]

 k-point  65 :       0.5000    0.5000    0.5000
  band No.  band energies     occupation
      1      -9.6982      2.00000
      2      -7.1903      2.00000
      3      -5.9664      2.00000
      4      -5.9664      2.00000
      5      -4.8897      2.00000
      6      -4.7210      2.00000
      7      -3.4753      2.00000
      8      -3.4753      2.00000
      9      -1.0225      2.00000
     10      -1.0225      2.00000
     11      -0.9692      2.00000
     12       0.6226      2.00000
     13       1.1667      2.00000
     14       1.1667      2.00000
     15       2.4665      2.00000
     16       2.4665      2.00000
     17       2.6577      2.00000
     18       3.1039      2.00000
     19       3.3201      2.00000
     20       3.3201      2.00000
     21       3.7473      2.00086
     22       3.7473      2.00086
     23       3.8305      2.00552
     24       4.9385     -0.00004
     25       8.0742      0.00000
     26       8.0742      0.00000
     27       8.2001      0.00000
     28       9.3146      0.00000
     29       9.3146      0.00000
     30       9.4705      0.00000
     31      10.9329      0.00000
     32      12.5196      0.00000

 soft charge-density along one line, spin component           1
         0         1         2         3         4         5         6         7         8         9
 total charge-density along one line

------------------------ aborting loop because EDIFF is reached ----------------------------------------

  FORCE on cell =-STRESS in cart. coord.  units (eV):
  Direction    XX          YY          ZZ          XY          YZ          ZX
  Alpha Z   133.57062   133.57062   133.57062
  Ewald    -414.95146  -414.95146  -411.65979     0.00000     0.00000     0.00000
  Hartree    50.68660    50.68660    33.16060     0.00000     0.00000     0.00000
  E(xc)    -145.31098  -145.31098  -145.23998     0.00000     0.00000     0.00000
  Local    -110.21806  -110.21806   -85.11718     0.00000     0.00000     0.00000
  n-local   -10.41333    -9.46333    -8.18855    -0.04294    -1.01605    -0.03424
  augment     1.76205     1.76205     1.83954     0.00000     0.00000     0.00000
  Kinetic   498.17141   490.67976   481.57285    -0.68329     7.46610     0.60494
  Fock        0.00000     0.00000     0.00000     0.00000     0.00000     0.00000
  Total       0.02602     0.02602    -0.06188     0.00000     0.00000     0.00000
  in kB       0.35978     0.35978    -0.85555     0.00000     0.00000     0.00000

 VOLUME and BASIS-vectors are now :
  energy-cutoff  :      318.61
  volume of cell :      115.89
      direct lattice vectors                 reciprocal lattice vectors
     2.895887559  1.671941462  3.989101205     0.172658637  0.099684511  0.083561012
    -2.895887559  1.671941462  3.989101205    -0.172658637  0.099684511  0.083561012
     0.000000000 -3.343882923  3.989101205     0.000000000 -0.199369022  0.083561012

  length of vectors
     5.205235963  5.205235963  5.205235962     0.216172268  0.216172268  0.216172268

 FORCES acting on ions
    electron-ion (+dipol)            ewald-force                    non-local-force                 convergence-correction
   -.314E-12 -.229E-13 -.155E-12   -.566E-14 -.241E-13 -.816E-14   -.412E-27 0.000E+00 -.103E-24   0.844E-13 0.619E-13 0.785E-13
   0.160E-12 0.153E-07 -.241E+02   0.461E-14 -.506E-08 0.245E+02   0.139E-16 -.315E-11 -.370E+00   0.106E-12 0.252E-13 0.775E-03
   -.194E-12 -.153E-07 0.241E+02   -.233E-14 0.506E-08 -.245E+02   -.677E-20 0.315E-11 0.370E+00   -.293E-13 -.121E-13 -.775E-03
   0.371E+02 -.214E+02 0.119E+02   -.394E+02 0.228E+02 -.118E+02   0.234E+01 -.135E+01 -.489E-01   -.124E-03 0.713E-04 0.176E-03
   -.899E-13 0.429E+02 0.119E+02   -.533E-14 -.456E+02 -.118E+02   0.140E-16 0.270E+01 -.489E-01   0.107E-13 -.143E-03 0.176E-03
   -.371E+02 -.214E+02 0.119E+02   0.394E+02 0.228E+02 -.118E+02   -.234E+01 -.135E+01 -.489E-01   0.124E-03 0.713E-04 0.176E-03
   0.371E+02 0.214E+02 -.119E+02   -.394E+02 -.228E+02 0.118E+02   0.234E+01 0.135E+01 0.489E-01   -.124E-03 -.713E-04 -.176E-03
   -.133E-12 -.429E+02 -.119E+02   -.205E-14 0.456E+02 0.118E+02   -.131E-18 -.270E+01 0.489E-01   -.461E-13 0.143E-03 -.176E-03
   -.371E+02 0.214E+02 -.119E+02   0.394E+02 -.228E+02 0.118E+02   -.234E+01 0.135E+01 0.489E-01   0.124E-03 -.713E-04 -.176E-03
   0.180E+02 -.104E+02 -.398E+02   -.205E+02 0.118E+02 0.434E+02   0.249E+01 -.144E+01 -.362E+01   -.497E-03 0.287E-03 0.397E-03
   0.114E-13 0.208E+02 -.398E+02   -.161E-14 -.237E+02 0.434E+02   -.102E-16 0.288E+01 -.362E+01   0.261E-13 -.574E-03 0.397E-03
   -.180E+02 -.104E+02 -.398E+02   0.205E+02 0.118E+02 0.434E+02   -.249E+01 -.144E+01 -.362E+01   0.497E-03 0.287E-03 0.397E-03
   0.180E+02 0.104E+02 0.398E+02   -.205E+02 -.118E+02 -.434E+02   0.249E+01 0.144E+01 0.362E+01   -.497E-03 -.287E-03 -.397E-03
   0.244E-12 -.208E+02 0.398E+02   0.389E-14 0.237E+02 -.434E+02   0.324E-17 -.288E+01 0.362E+01   -.162E-12 0.574E-03 -.397E-03
   -.180E+02 0.104E+02 0.398E+02   0.205E+02 -.118E+02 -.434E+02   -.249E+01 0.144E+01 0.362E+01   0.497E-03 -.287E-03 -.397E-03
   -.686E-12 -.183E-11 -.554E-11   0.107E-13 -.213E-13 0.000E+00   -.444E-15 0.111E-14 -.178E-14   -.312E-13 -.666E-13 -.103E-12

 POSITION                                       TOTAL-FORCE (eV/Angst)
      0.00000      0.00000      5.98365         0.000000      0.000000      0.000000
      0.00000      0.00000      7.59839         0.000000      0.000000     -0.000661
      0.00000      0.00000      4.36891         0.000000      0.000000      0.000661
      1.46331     -0.84484      7.63608         0.000692     -0.000400      0.000203
      0.00000      1.68968      7.63608         0.000000      0.000799      0.000203
     -1.46331     -0.84484      7.63608        -0.000692     -0.000400      0.000203
      1.46331      0.84484      4.33122         0.000692      0.000400     -0.000203
      0.00000     -1.68968      4.33122         0.000000     -0.000799     -0.000203
     -1.46331      0.84484      4.33122        -0.000692      0.000400     -0.000203
     -0.93980      0.54260      1.36779         0.002521     -0.001455     -0.002813
      0.00000     -1.08519      1.36779         0.000000      0.002911     -0.002813
      0.93980      0.54260      1.36779        -0.002521     -0.001455     -0.002813
     -0.93980     -0.54260     10.59951         0.002521      0.001455      0.002813
      0.00000      1.08519     10.59951         0.000000     -0.002911      0.002813
      0.93980     -0.54260     10.59951        -0.002521      0.001455      0.002813
    total drift:                                0.000000      0.000000      0.000000

  FREE ENERGIE OF THE ION-ELECTRON SYSTEM (eV)
  free  energy   TOTEN  =       -97.211256 eV

  energy  without entropy=      -97.211171  energy(sigma->0) =      -97.211228

 d Force = 0.5020957E-05[-0.201E-05, 0.120E-04]  d Energy =-0.6719629E-06 0.569E-05
 d Force = 0.6870888E-01[ 0.687E-01, 0.687E-01]  d Ewald  = 0.9911804E-01-0.304E-01

 reached required accuracy - stopping structural energy minimisation